*Heading
** Job name: T3 Model name: Model-1-Copy
** Generated by: Abaqus/CAE 6.14-1
*Preprint, echo=NO, model=NO, history=NO, contact=NO
**
** PARTS
**
*Part, name=Part-1
*Node
      1,          10.,          10.
      2,   3.53553391,   3.53553391
      3,           5.,           0.
      4,          10.,           0.
      5,           0.,          10.
      6,          10.,          20.
      7,           0.,          20.
      8,           0.,           5.
      9,   9.79798508,   9.79798508
     10,   9.59597111,   9.59597111
     11,   9.39395618,   9.39395618
     12,   9.19194221,   9.19194221
     13,   8.98992729,   8.98992729
     14,   8.78791237,   8.78791237
     15,    8.5858984,    8.5858984
     16,   8.38388348,   8.38388348
     17,   8.18186855,   8.18186855
     18,   7.97985458,   7.97985458
     19,   7.77783966,   7.77783966
     20,   7.57582521,   7.57582521
     21,   7.37381077,   7.37381077
     22,   7.17179632,   7.17179632
     23,    6.9697814,    6.9697814
     24,   6.76776695,   6.76776695
     25,   6.56575251,   6.56575251
     26,   6.36373806,   6.36373806
     27,   6.16172314,   6.16172314
     28,   5.95970869,   5.95970869
     29,   5.75769424,   5.75769424
     30,    5.5556798,    5.5556798
     31,   5.35366488,   5.35366488
     32,   5.15165043,   5.15165043
     33,   4.94963598,   4.94963598
     34,   4.74762154,   4.74762154
     35,   4.54560661,   4.54560661
     36,   4.34359217,   4.34359217
     37,   4.14157772,   4.14157772
     38,   3.93956304,   3.93956304
     39,   3.73754859,   3.73754859
     40,   3.61397433,   3.45531321
     41,   3.69059491,   3.37335277
     42,   3.76535726,   3.28969359
     43,    3.8382237,   3.20437813
     44,   3.90915751,   3.11744905
     45,   3.97812271,   3.02895021
     46,   4.04508495,   2.93892622
     47,   4.11001015,   2.84742236
     48,   4.17286634,   2.75448489
     49,   4.23362112,    2.6601603
     50,   4.29224396,   2.56449628
     51,   4.34870577,   2.46754098
     52,   4.40297747,   2.36934328
     53,   4.45503283,   2.26995254
     54,   4.50484419,   2.16941881
     55,   4.55238771,   2.06779242
     56,   4.59763908,    1.9651252
     57,   4.64057493,   1.86146832
     58,   4.68117428,   1.75687408
     59,   4.71941662,   1.65139532
     60,    4.7552824,   1.54508495
     61,   4.78875399,   1.43799663
     62,   4.81981421,   1.33018422
     63,    4.8484478,   1.22170198
     64,   4.87463951,   1.11260462
     65,   4.89837694,   1.00294709
     66,   4.91964817,  0.892784476
     67,   4.93844175,  0.782172322
     68,   4.95474863,  0.671166301
     69,   4.96856117,  0.559822381
     70,   4.97987127,   0.44819653
     71,   4.98867416,  0.336345017
     72,   4.99496555,  0.224324152
     73,   4.99874115,  0.112190321
     74,      5.15625,           0.
     75,       5.3125,           0.
     76,      5.46875,           0.
     77,        5.625,           0.
     78,      5.78125,           0.
     79,       5.9375,           0.
     80,      6.09375,           0.
     81,         6.25,           0.
     82,      6.40625,           0.
     83,       6.5625,           0.
     84,      6.71875,           0.
     85,        6.875,           0.
     86,      7.03125,           0.
     87,       7.1875,           0.
     88,      7.34375,           0.
     89,          7.5,           0.
     90,      7.65625,           0.
     91,       7.8125,           0.
     92,      7.96875,           0.
     93,        8.125,           0.
     94,      8.28125,           0.
     95,       8.4375,           0.
     96,      8.59375,           0.
     97,         8.75,           0.
     98,      8.90625,           0.
     99,       9.0625,           0.
    100,      9.21875,           0.
    101,        9.375,           0.
    102,      9.53125,           0.
    103,       9.6875,           0.
    104,      9.84375,           0.
    105,          10.,  0.285714298
    106,          10.,  0.571428597
    107,          10.,  0.857142866
    108,          10.,   1.14285719
    109,          10.,   1.42857146
    110,          10.,   1.71428573
    111,          10.,           2.
    112,          10.,   2.28571439
    113,          10.,   2.57142854
    114,          10.,   2.85714293
    115,          10.,   3.14285707
    116,          10.,   3.42857146
    117,          10.,   3.71428561
    118,          10.,           4.
    119,          10.,   4.28571415
    120,          10.,   4.57142878
    121,          10.,   4.85714293
    122,          10.,   5.14285707
    123,          10.,   5.42857122
    124,          10.,   5.71428585
    125,          10.,           6.
    126,          10.,   6.28571415
    127,          10.,   6.57142878
    128,          10.,   6.85714293
    129,          10.,   7.14285707
    130,          10.,   7.42857122
    131,          10.,   7.71428585
    132,          10.,           8.
    133,          10.,   8.28571415
    134,          10.,    8.5714283
    135,          10.,   8.85714245
    136,          10.,   9.14285755
    137,          10.,    9.4285717
    138,          10.,   9.71428585
    139,  0.370370358,          10.
    140,  0.740740716,          10.
    141,   1.11111116,          10.
    142,   1.48148143,          10.
    143,   1.85185182,          10.
    144,   2.22222233,          10.
    145,   2.59259248,          10.
    146,   2.96296287,          10.
    147,   3.33333325,          10.
    148,   3.70370364,          10.
    149,   4.07407427,          10.
    150,   4.44444466,          10.
    151,   4.81481504,          10.
    152,   5.18518496,          10.
    153,   5.55555534,          10.
    154,   5.92592573,          10.
    155,   6.29629612,          10.
    156,   6.66666651,          10.
    157,    7.0370369,          10.
    158,   7.40740728,          10.
    159,   7.77777767,          10.
    160,   8.14814854,          10.
    161,   8.51851845,          10.
    162,   8.88888931,          10.
    163,   9.25925922,          10.
    164,   9.62963009,          10.
    165,          10.,   12.4468107
    166,          10.,   14.3412876
    167,          10.,   15.8081121
    168,          10.,    16.943821
    169,          10.,   17.8231602
    170,          10.,   18.5039997
    171,          10.,   19.0311489
    172,          10.,   19.4393005
    173,          10.,   19.7553196
    174,   9.90670872,          20.
    175,   9.80477905,          20.
    176,   9.69340992,          20.
    177,   9.57172871,          20.
    178,   9.43877888,          20.
    179,   9.29351807,          20.
    180,   9.13480663,          20.
    181,   8.96139717,          20.
    182,   8.77193069,          20.
    183,   8.56491947,          20.
    184,   8.33873844,          20.
    185,   8.09161377,          20.
    186,   7.82160425,          20.
    187,   7.52659178,          20.
    188,   7.20426083,          20.
    189,   6.85208178,          20.
    190,   6.46729088,          20.
    191,   6.04686737,          20.
    192,   5.58751297,          20.
    193,   5.08562183,          20.
    194,   4.53725481,          20.
    195,   3.93810892,          20.
    196,   3.28348136,          20.
    197,   2.56823492,          20.
    198,   1.78675592,          20.
    199,  0.932911336,          20.
    200,           0.,   17.5531883
    201,           0.,   15.6587124
    202,           0.,   14.1918879
    203,           0.,    13.056179
    204,           0.,   12.1768408
    205,           0.,   11.4960012
    206,           0.,   10.9688511
    207,           0.,   10.5606985
    208,           0.,   10.2446814
    209,           0.,      9.84375
    210,           0.,       9.6875
    211,           0.,      9.53125
    212,           0.,        9.375
    213,           0.,      9.21875
    214,           0.,       9.0625
    215,           0.,      8.90625
    216,           0.,         8.75
    217,           0.,      8.59375
    218,           0.,       8.4375
    219,           0.,      8.28125
    220,           0.,        8.125
    221,           0.,      7.96875
    222,           0.,       7.8125
    223,           0.,      7.65625
    224,           0.,          7.5
    225,           0.,      7.34375
    226,           0.,       7.1875
    227,           0.,      7.03125
    228,           0.,        6.875
    229,           0.,      6.71875
    230,           0.,       6.5625
    231,           0.,      6.40625
    232,           0.,         6.25
    233,           0.,      6.09375
    234,           0.,       5.9375
    235,           0.,      5.78125
    236,           0.,        5.625
    237,           0.,      5.46875
    238,           0.,       5.3125
    239,           0.,      5.15625
    240,  0.145423591,   4.99788475
    241,  0.290724158,   4.99154091
    242,  0.435778707,   4.98097372
    243,  0.580464542,   4.96619177
    244,  0.724659324,    4.9472084
    245,  0.868240893,   4.92403889
    246,   1.01108789,   4.89670324
    247,   1.15307939,   4.86522436
    248,   1.29409528,   4.82962894
    249,   1.43401611,   4.78994751
    250,   1.57272375,   4.74621344
    251,   1.71010077,   4.69846296
    252,   1.84603071,   4.64673758
    253,   1.98039877,   4.59108067
    254,   2.11309123,   4.53153896
    255,    2.2439959,   4.46816301
    256,   2.37300181,   4.40100718
    257,          2.5,   4.33012724
    258,   2.62488294,   4.25558329
    259,     2.747545,   4.17743921
    260,   2.86788225,   4.09576035
    261,   2.98579288,   4.01061583
    262,   3.10117745,   3.92207837
    263,     3.213938,   3.83022213
    264,   3.32397938,    3.7351253
    265,   3.43120813,   3.63686824
    266,   9.80043697,   9.51869297
    267,   9.60087299,   9.32310009
    268,   9.40130997,   9.12750721
    269,   9.20174694,   8.93191433
    270,   9.00218391,   8.73632145
    271,   8.80261993,   8.54072857
    272,   8.60305691,   8.34513569
    273,   8.40349388,   8.14954281
    274,    8.2039299,   7.95394993
    275,   8.00436687,   7.75835705
    276,   7.80480385,   7.56276369
    277,   7.60524035,   7.36717081
    278,   7.40567684,   7.17157793
    279,   7.20611382,   6.97598505
    280,   7.00655031,   6.78039217
    281,   6.80698729,   6.58479929
    282,   6.60742378,   6.38920641
    283,   6.40786076,   6.19361353
    284,   6.20829725,   5.99802065
    285,   6.00873375,   5.80242777
    286,   5.80917072,   5.60683489
    287,   5.60960722,   5.41124201
    288,   5.41004419,   5.21564913
    289,   5.21048069,   5.02005625
    290,   5.01091766,   4.82446337
    291,   4.81135416,   4.62887049
    292,   4.61179066,   4.43327761
    293,   4.41222763,   4.23768473
    294,   4.21266413,   4.04209185
    295,    4.0131011,   3.84649897
    296,    3.8135376,   3.65090609
    297,    9.8028307,   9.23934555
    298,   9.60566235,   9.05012035
    299,   9.40849304,    8.8608942
    300,   9.21132469,   8.67166901
    301,   9.01415539,   8.48244381
    302,   8.81698608,   8.29321766
    303,   8.61981773,   8.10399246
    304,   8.42264843,   7.91476679
    305,   8.22548008,   7.72554111
    306,   8.02831078,   7.53631544
    307,   7.83114195,   7.34708977
    308,   7.63397312,   7.15786457
    309,   7.43680429,    6.9686389
    310,   7.23963547,   6.77941322
    311,   7.04246616,   6.59018755
    312,   6.84529734,   6.40096188
    313,   6.64812851,   6.21173668
    314,   6.45095968,   6.02251101
    315,   6.25379086,   5.83328533
    316,   6.05662203,   5.64405966
    317,   5.85945272,   5.45483398
    318,    5.6622839,   5.26560879
    319,   5.46511507,   5.07638311
    320,   5.26794624,   4.88715744
    321,   5.07077742,   4.69793177
    322,   4.87360859,   4.50870609
    323,   4.67643929,   4.31948042
    324,   4.47927046,   4.13025522
    325,   4.28210163,   3.94102955
    326,    4.0849328,   3.75180387
    327,   3.88776398,    3.5625782
    328,    9.8051672,   8.95994568
    329,    9.6103344,   8.77703476
    330,   9.41550255,   8.59412289
    331,   9.22066975,   8.41121197
    332,   9.02583694,   8.22830009
    333,   8.83100414,   8.04538918
    334,   8.63617229,   7.86247778
    335,   8.44133949,   7.67956638
    336,   8.24650669,   7.49665499
    337,   8.05167389,   7.31374359
    338,   7.85684156,    7.1308322
    339,   7.66200876,    6.9479208
    340,   7.46717644,    6.7650094
    341,   7.27234364,   6.58209801
    342,   7.07751131,   6.39918661
    343,   6.88267851,   6.21627522
    344,   6.68784618,   6.03336382
    345,   6.49301338,    5.8504529
    346,   6.29818106,    5.6675415
    347,   6.10334826,   5.48463011
    348,   5.90851593,   5.30171871
    349,   5.71368313,   5.11880732
    350,    5.5188508,   4.93589592
    351,     5.324018,   4.75298452
    352,    5.1291852,   4.57007313
    353,   4.93435287,   4.38716173
    354,   4.73952007,   4.20425034
    355,   4.54468775,   4.02133894
    356,   4.34985495,   3.83842778
    357,   4.15502262,   3.65551639
    358,   3.96018982,   3.47260499
    359,   9.80744457,   8.68049431
    360,   9.61488914,   8.50384521
    361,   9.42233372,   8.32719612
    362,   9.22977829,   8.15054703
    363,   9.03722286,   7.97389841
    364,   8.84466648,   7.79724932
    365,   8.65211105,    7.6206007
    366,   8.45955563,   7.44395161
    367,    8.2670002,   7.26730299
    368,   8.07444477,    7.0906539
    369,   7.88188934,    6.9140048
    370,   7.68933392,   6.73735619
    371,   7.49677849,   6.56070709
    372,   7.30422306,   6.38405848
    373,   7.11166716,   6.20740938
    374,   6.91911173,   6.03076029
    375,    6.7265563,   5.85411167
    376,   6.53400087,   5.67746258
    377,   6.34144545,   5.50081396
    378,   6.14889002,   5.32416487
    379,   5.95633411,   5.14751577
    380,   5.76377869,   4.97086716
    381,   5.57122326,   4.79421806
    382,   5.37866783,   4.61756945
    383,    5.1861124,   4.44092035
    384,   4.99355698,   4.26427126
    385,   4.80100107,   4.08762264
    386,   4.60844564,   3.91097379
    387,   4.41589022,   3.73432469
    388,   4.22333479,   3.55767584
    389,   4.03077936,   3.38102698
    390,   9.80966091,   8.40099144
    391,   9.61932278,   8.23055458
    392,   9.42898369,   8.06011772
    393,    9.2386446,   7.88968134
    394,   9.04830551,   7.71924448
    395,   8.85796738,   7.54880762
    396,   8.66762829,   7.37837076
    397,    8.4772892,    7.2079339
    398,   8.28695011,   7.03749704
    399,   8.09661198,   6.86706018
    400,   7.90627289,   6.69662333
    401,    7.7159338,   6.52618647
    402,   7.52559519,   6.35574961
    403,   7.33525658,   6.18531275
    404,   7.14491749,   6.01487589
    405,   6.95457888,   5.84443855
    406,   6.76423979,   5.67400169
    407,   6.57390118,   5.50356483
    408,   6.38356209,   5.33312798
    409,   6.19322348,   5.16269112
    410,   6.00288439,   4.99225426
    411,   5.81254578,    4.8218174
    412,   5.62220669,   4.65138054
    413,   5.43186808,   4.48094368
    414,   5.24152946,   4.31050682
    415,   5.05119038,   4.14006996
    416,   4.86085176,   3.96963334
    417,   4.67051268,   3.79919648
    418,   4.48017406,   3.62875962
    419,   4.28983498,   3.45832276
    420,   4.09949636,    3.2878859
    421,   9.81181622,   8.12143993
    422,   9.62363243,   7.95716667
    423,   9.43544865,   7.79289246
    424,   9.24726582,   7.62861872
    425,   9.05908203,   7.46434498
    426,   8.87089825,   7.30007124
    427,   8.68271446,   7.13579702
    428,   8.49453068,   6.97152328
    429,   8.30634689,   6.80724955
    430,   8.11816311,   6.64297533
    431,    7.9299798,   6.47870159
    432,   7.74179602,   6.31442785
    433,   7.55361223,   6.15015411
    434,   7.36542892,    5.9858799
    435,   7.17724514,   5.82160616
    436,   6.98906136,   5.65733242
    437,   6.80087757,    5.4930582
    438,   6.61269426,   5.32878447
    439,   6.42451048,   5.16451073
    440,   6.23632669,   5.00023651
    441,   6.04814291,   4.83596277
    442,    5.8599596,   4.67168903
    443,   5.67177582,   4.50741529
    444,   5.48359203,   4.34314108
    445,   5.29540825,   4.17886734
    446,   5.10722494,    4.0145936
    447,   4.91904116,   3.85031962
    448,   4.73085737,   3.68604565
    449,   4.54267359,   3.52177191
    450,   4.35449028,   3.35749793
    451,    4.1663065,   3.19322419
    452,   9.81390858,   7.84184122
    453,   9.62781811,   7.68368292
    454,   9.44172668,   7.52552414
    455,   9.25563526,   7.36736584
    456,   9.06954479,   7.20920706
    457,   8.88345337,   7.05104876
    458,   8.69736195,   6.89288998
    459,   8.51127148,   6.73473167
    460,   8.32518005,    6.5765729
    461,   8.13908863,   6.41841459
    462,   7.95299816,   6.26025581
    463,   7.76690674,   6.10209751
    464,   7.58081579,   5.94393873
    465,   7.39472485,   5.78578043
    466,   7.20863342,   5.62762165
    467,   7.02254248,   5.46946335
    468,   6.83645153,   5.31130457
    469,   6.65036011,   5.15314579
    470,   6.46426916,   4.99498749
    471,   6.27817822,   4.83682871
    472,   6.09208679,   4.67867041
    473,   5.90599585,   4.52051163
    474,    5.7199049,   4.36235332
    475,   5.53381395,   4.20419455
    476,   5.34772253,   4.04603624
    477,   5.16163158,    3.8878777
    478,   4.97554064,   3.72971892
    479,   4.78944921,   3.57156038
    480,   4.60335827,   3.41340184
    481,   4.41726732,    3.2552433
    482,    4.2311759,   3.09708476
    483,     9.815938,   7.56219625
    484,   9.63187599,   7.41010666
    485,   9.44781303,   7.25801706
    486,   9.26375103,   7.10592794
    487,   9.07968903,   6.95383835
    488,   8.89562702,   6.80174875
    489,   8.71156502,   6.64965916
    490,   8.52750301,   6.49757004
    491,   8.34344006,   6.34548044
    492,   8.15937805,   6.19339085
    493,   7.97531605,   6.04130125
    494,   7.79125404,   5.88921213
    495,   7.60719156,   5.73712254
    496,   7.42312956,   5.58503294
    497,   7.23906755,   5.43294334
    498,   7.05500507,   5.28085423
    499,   6.87094307,   5.12876463
    500,   6.68688107,   4.97667503
    501,   6.50281858,   4.82458544
    502,   6.31875658,   4.67249632
    503,    6.1346941,   4.52040672
    504,    5.9506321,   4.36831713
    505,   5.76657009,   4.21622753
    506,   5.58250761,   4.06413841
    507,   5.39844561,   3.91204882
    508,    5.2143836,   3.75995922
    509,   5.03032112,   3.60786986
    510,   4.84625912,   3.45578027
    511,   4.66219711,   3.30369091
    512,   4.47813463,   3.15160131
    513,   4.29407263,   2.99951196
    514,   9.81790161,   7.28250599
    515,   9.63580418,   7.13644123
    516,   9.45370579,     6.990376
    517,   9.27160835,   6.84431076
    518,   9.08950996,   6.69824553
    519,   8.90741253,   6.55218029
    520,   8.72531414,   6.40611506
    521,   8.54321671,   6.26004982
    522,   8.36111832,   6.11398458
    523,   8.17902088,   5.96791935
    524,   7.99692297,   5.82185411
    525,   7.81482506,   5.67578888
    526,   7.63272715,   5.52972364
    527,   7.45062876,   5.38365841
    528,   7.26853085,   5.23759317
    529,   7.08643293,   5.09152794
    530,   6.90433502,   4.94546318
    531,   6.72223711,   4.79939795
    532,    6.5401392,   4.65333271
    533,   6.35804129,   4.50726748
    534,   6.17594337,   4.36120224
    535,   5.99384546,     4.215137
    536,   5.81174755,   4.06907177
    537,   5.62964964,   3.92300653
    538,   5.44755173,    3.7769413
    539,   5.26545382,   3.63087606
    540,    5.0833559,   3.48481083
    541,   4.90125799,   3.33874583
    542,   4.71916008,    3.1926806
    543,   4.53706217,   3.04661536
    544,   4.35496426,   2.90055013
    545,   9.81980038,   7.00277281
    546,   9.63960171,   6.86268854
    547,   9.45940208,   6.72260427
    548,   9.27920246,   6.58252001
    549,   9.09900284,   6.44243574
    550,   8.91880417,   6.30235147
    551,   8.73860455,   6.16226721
    552,   8.55840492,   6.02218294
    553,   8.37820625,   5.88209867
    554,   8.19800663,   5.74201441
    555,   8.01780701,   5.60193014
    556,   7.83760786,   5.46184587
    557,   7.65740871,   5.32176161
    558,   7.47720909,   5.18167734
    559,   7.29700994,   5.04159307
    560,   7.11681032,   4.90150881
    561,   6.93661118,   4.76142454
    562,   6.75641203,   4.62134027
    563,   6.57621241,   4.48125601
    564,   6.39601326,   4.34117174
    565,   6.21581364,   4.20108747
    566,   6.03561449,   4.06100321
    567,   5.85541487,   3.92091894
    568,   5.67521572,   3.78083467
    569,   5.49501657,   3.64075041
    570,   5.31481695,   3.50066614
    571,   5.13461781,   3.36058164
    572,   4.95441818,   3.22049737
    573,   4.77421904,    3.0804131
    574,   4.59401989,   2.94032884
    575,   4.41382027,   2.80024457
    576,   9.82163239,   6.72299767
    577,   9.64326572,   6.58885241
    578,   9.46489811,   6.45470715
    579,   9.28653049,   6.32056189
    580,   9.10816288,   6.18641663
    581,   8.92979622,   6.05227184
    582,    8.7514286,   5.91812658
    583,   8.57306099,   5.78398132
    584,   8.39469337,   5.64983606
    585,   8.21632671,    5.5156908
    586,    8.0379591,   5.38154554
    587,   7.85959148,   5.24740028
    588,   7.68122435,   5.11325502
    589,   7.50285673,   4.97911024
    590,   7.32448959,   4.84496498
    591,   7.14612198,   4.71081972
    592,   6.96775484,   4.57667446
    593,   6.78938723,    4.4425292
    594,   6.61102009,   4.30838394
    595,   6.43265247,   4.17423868
    596,   6.25428534,   4.04009342
    597,   6.07591772,    3.9059484
    598,   5.89755058,   3.77180314
    599,   5.71918297,   3.63765812
    600,   5.54081583,   3.50351286
    601,   5.36244822,    3.3693676
    602,   5.18408108,   3.23522234
    603,   5.00571346,   3.10107708
    604,   4.82734632,   2.96693206
    605,   4.64897871,    2.8327868
    606,   4.47061157,   2.69864154
    607,   9.82339668,   6.44318199
    608,   9.64679432,   6.31493568
    609,     9.470191,    6.1866889
    610,   9.29358864,   6.05844259
    611,   9.11698532,   5.93019629
    612,     8.940382,    5.8019495
    613,   8.76377964,   5.67370319
    614,   8.58717632,   5.54545689
    615,   8.41057301,    5.4172101
    616,   8.23397064,   5.28896379
    617,   8.05736732,   5.16071749
    618,   7.88076448,    5.0324707
    619,   7.70416164,    4.9042244
    620,    7.5275588,   4.77597761
    621,   7.35095596,    4.6477313
    622,   7.17435265,     4.519485
    623,   6.99774981,   4.39123821
    624,   6.82114697,   4.26299191
    625,   6.64454412,    4.1347456
    626,   6.46794081,   4.00649881
    627,   6.29133797,   3.87825251
    628,   6.11473513,   3.75000596
    629,   5.93813229,   3.62175941
    630,   5.76152945,   3.49351287
    631,   5.58492613,   3.36526656
    632,   5.40832329,   3.23702002
    633,   5.23172045,   3.10877347
    634,   5.05511761,   2.98052692
    635,   4.87851429,   2.85228062
    636,   4.70191145,   2.72403407
    637,   4.52530861,   2.59578753
    638,   9.82509327,   6.16332769
    639,   9.65018654,   6.04094124
    640,   9.47527885,   5.91855431
    641,   9.30037212,   5.79616785
    642,   9.12546539,   5.67378139
    643,   8.95055866,   5.55139494
    644,   8.77565098,   5.42900801
    645,   8.60074425,   5.30662155
    646,   8.42583752,    5.1842351
    647,   8.25093079,   5.06184816
    648,    8.0760231,   4.93946171
    649,   7.90111685,   4.81707525
    650,   7.72620964,    4.6946888
    651,   7.55130291,   4.57230186
    652,    7.3763957,   4.44991541
    653,   7.20148897,   4.32752895
    654,   7.02658176,   4.20514202
    655,   6.85167503,   4.08275557
    656,   6.67676783,   3.96036911
    657,    6.5018611,   3.83798242
    658,   6.32695389,   3.71559572
    659,   6.15204716,   3.59320927
    660,   5.97714043,   3.47082257
    661,   5.80223322,   3.34843612
    662,   5.62732649,   3.22604942
    663,   5.45241928,   3.10366297
    664,   5.27751255,   2.98127627
    665,   5.10260534,   2.85888958
    666,   4.92769861,   2.73650312
    667,    4.7527914,   2.61411643
    668,   4.57788467,   2.49172997
    669,   9.82672024,    5.8834362
    670,   9.65343952,   5.76687193
    671,   9.48015976,   5.65030813
    672,   9.30687904,   5.53374386
    673,   9.13359928,   5.41718006
    674,   8.96031857,   5.30061626
    675,    8.7870388,   5.18405199
    676,   8.61375809,   5.06748819
    677,   8.44047832,   4.95092392
    678,   8.26719761,   4.83436012
    679,   8.09391785,   4.71779633
    680,   7.92063713,   4.60123205
    681,   7.74735689,   4.48466825
    682,   7.57407665,   4.36810398
    683,   7.40079641,   4.25154018
    684,   7.22751617,   4.13497639
    685,   7.05423594,   4.01841211
    686,    6.8809557,   3.90184832
    687,   6.70767546,   3.78528428
    688,   6.53439522,   3.66872025
    689,   6.36111498,   3.55215621
    690,   6.18783474,   3.43559241
    691,    6.0145545,   3.31902838
    692,   5.84127426,   3.20246434
    693,   5.66799402,   3.08590031
    694,   5.49471378,   2.96933651
    695,   5.32143354,   2.85277247
    696,   5.14815331,   2.73620844
    697,   4.97487354,    2.6196444
    698,    4.8015933,   2.50308037
    699,   4.62831306,   2.38651657
    700,   9.82827663,   5.60350847
    701,   9.65655231,   5.49273157
    702,   9.48482895,   5.38195419
    703,   9.31310558,   5.27117729
    704,   9.14138222,   5.16040039
    705,    8.9696579,   5.04962301
    706,   8.79793453,   4.93884611
    707,   8.62621117,   4.82806873
    708,    8.4544878,   4.71729183
    709,   8.28276348,   4.60651493
    710,   8.11104012,   4.49573755
    711,   7.93931675,   4.38496065
    712,   7.76759291,   4.27418327
    713,   7.59586954,   4.16340637
    714,    7.4241457,   4.05262947
    715,   7.25242233,   3.94185209
    716,   7.08069849,   3.83107519
    717,   6.90897512,   3.72029805
    718,   6.73725128,   3.60952091
    719,   6.56552792,   3.49874377
    720,   6.39380407,   3.38796663
    721,   6.22208071,   3.27718973
    722,   6.05035686,   3.16641259
    723,   5.87863302,   3.05563545
    724,   5.70690966,   2.94485831
    725,   5.53518581,   2.83408117
    726,   5.36346245,   2.72330427
    727,   5.19173861,   2.61252713
    728,   5.02001524,   2.50174999
    729,    4.8482914,   2.39097285
    730,   4.67656803,   2.28019571
    731,   9.82976246,   5.32354689
    732,   9.65952396,   5.21852255
    733,   9.48928642,   5.11349821
    734,   9.31904888,   5.00847387
    735,   9.14881039,   4.90344954
    736,   8.97857285,    4.7984252
    737,   8.80833435,   4.69340086
    738,   8.63809681,   4.58837652
    739,   8.46785927,   4.48335218
    740,   8.29762077,   4.37832785
    741,   8.12738323,   4.27330351
    742,   7.95714521,   4.16827917
    743,   7.78690767,   4.06325483
    744,   7.61666965,   3.95823073
    745,   7.44643164,    3.8532064
    746,    7.2761941,   3.74818206
    747,   7.10595608,   3.64315772
    748,   6.93571806,   3.53813338
    749,   6.76548004,   3.43310905
    750,    6.5952425,   3.32808471
    751,   6.42500448,   3.22306037
    752,   6.25476646,   3.11803603
    753,   6.08452845,   3.01301169
    754,    5.9142909,   2.90798736
    755,   5.74405289,   2.80296302
    756,   5.57381487,   2.69793868
    757,   5.40357733,   2.59291434
    758,   5.23333931,   2.48789001
    759,   5.06310129,   2.38286543
    760,   4.89286327,   2.27784109
    761,   4.72262573,   2.17281675
    762,    9.8311758,   5.04355288
    763,   9.66235256,   4.94424868
    764,   9.49352837,   4.84494495
    765,   9.32470512,   4.74564075
    766,   9.15588093,   4.64633656
    767,   8.98705769,   4.54703236
    768,   8.81823349,   4.44772816
    769,   8.64940929,   4.34842396
    770,   8.48058605,   4.24912024
    771,   8.31176186,   4.14981604
    772,   8.14293861,   4.05051184
    773,   7.97411442,   3.95120764
    774,    7.8052907,   3.85190344
    775,   7.63646698,   3.75259948
    776,   7.46764326,   3.65329528
    777,   7.29881954,   3.55399108
    778,   7.12999582,   3.45468712
    779,   6.96117163,   3.35538292
    780,   6.79234791,   3.25607872
    781,   6.62352419,   3.15677476
    782,   6.45470047,   3.05747056
    783,   6.28587675,   2.95816636
    784,   6.11705303,   2.85886216
    785,   5.94822931,    2.7595582
    786,   5.77940559,     2.660254
    787,    5.6105814,    2.5609498
    788,   5.44175768,   2.46164584
    789,   5.27293396,   2.36234164
    790,   5.10411024,   2.26303744
    791,   4.93528652,   2.16373348
    792,    4.7664628,   2.06442928
    793,   9.83251762,   4.76352787
    794,    9.6650362,   4.66991329
    795,   9.49755383,   4.57629824
    796,   9.33007145,   4.48268366
    797,   9.16259003,    4.3890686
    798,   8.99510765,   4.29545403
    799,   8.82762623,   4.20183897
    800,   8.66014385,   4.10822439
    801,   8.49266148,   4.01460934
    802,   8.32518005,   3.92099452
    803,   8.15769768,    3.8273797
    804,   7.99021578,   3.73376489
    805,    7.8227334,   3.64015007
    806,    7.6552515,   3.54653525
    807,    7.4877696,   3.45292044
    808,    7.3202877,   3.35930562
    809,   7.15280533,    3.2656908
    810,   6.98532343,   3.17207599
    811,   6.81784153,   3.07846117
    812,   6.65035915,   2.98484635
    813,   6.48287725,   2.89123154
    814,   6.31539536,   2.79761648
    815,   6.14791346,   2.70400167
    816,   5.98043108,   2.61038685
    817,   5.81294918,   2.51677203
    818,   5.64546728,   2.42315722
    819,   5.47798491,    2.3295424
    820,   5.31050301,   2.23592758
    821,   5.14302111,   2.14231277
    822,   4.97553921,   2.04869795
    823,   4.80805683,   1.95508313
    824,   9.83378696,   4.48347378
    825,   9.66757298,   4.39551878
    826,   9.50135994,   4.30756426
    827,    9.3351469,   4.21960926
    828,   9.16893387,   4.13165426
    829,   9.00271988,   4.04369974
    830,   8.83650684,   3.95574474
    831,   8.67029381,   3.86778998
    832,   8.50407982,   3.77983522
    833,   8.33786678,   3.69188023
    834,   8.17165375,   3.60392547
    835,   8.00544071,   3.51597071
    836,    7.8392272,   3.42801571
    837,   7.67301369,   3.34006095
    838,   7.50680065,   3.25210619
    839,   7.34058714,   3.16415143
    840,    7.1743741,   3.07619643
    841,   7.00816059,   2.98824167
    842,   6.84194708,   2.90028691
    843,   6.67573404,   2.81233215
    844,   6.50952053,   2.72437716
    845,    6.3433075,    2.6364224
    846,   6.17709398,   2.54846764
    847,   6.01088095,   2.46051264
    848,   5.84466743,   2.37255788
    849,    5.6784544,   2.28460312
    850,   5.51224089,   2.19664836
    851,   5.34602737,   2.10869336
    852,   5.17981434,    2.0207386
    853,   5.01360083,   1.93278372
    854,   4.84738779,   1.84482896
    855,   9.83498192,   4.20339203
    856,   9.66996384,   4.12106943
    857,   9.50494576,   4.03874683
    858,   9.33992672,   3.95642447
    859,   9.17490864,   3.87410188
    860,   9.00989056,   3.79177952
    861,   8.84487247,   3.70945692
    862,   8.67985439,   3.62713456
    863,   8.51483631,   3.54481196
    864,   8.34981728,    3.4624896
    865,   8.18479919,   3.38016725
    866,   8.01978111,   3.29784465
    867,   7.85476303,   3.21552229
    868,   7.68974495,   3.13319969
    869,   7.52472639,   3.05087733
    870,   7.35970831,   2.96855474
    871,   7.19469023,   2.88623238
    872,   7.02967167,   2.80390978
    873,   6.86465359,   2.72158742
    874,   6.69963551,   2.63926482
    875,   6.53461695,   2.55694246
    876,   6.36959887,    2.4746201
    877,   6.20458078,   2.39229751
    878,    6.0395627,   2.30997515
    879,   5.87454414,   2.22765255
    880,   5.70952606,   2.14533019
    881,   5.54450798,   2.06300759
    882,   5.37948942,   1.98068523
    883,   5.21447134,   1.89836276
    884,   5.04945326,   1.81604028
    885,    4.8844347,    1.7337178
    886,   9.83610249,   3.92328382
    887,   9.67220497,   3.84656787
    888,   9.50830746,   3.76985168
    889,   9.34440994,   3.69313574
    890,   9.18051243,   3.61641955
    891,   9.01661587,   3.53970337
    892,   8.85271835,   3.46298742
    893,   8.68882084,   3.38627124
    894,   8.52492332,   3.30955505
    895,   8.36102581,   3.23283911
    896,    8.1971283,   3.15612292
    897,   8.03323078,   3.07940698
    898,   7.86933374,   3.00269079
    899,   7.70543623,   2.92597461
    900,   7.54153872,   2.84925866
    901,    7.3776412,   2.77254248
    902,   7.21374369,   2.69582629
    903,   7.04984665,   2.61911035
    904,   6.88594913,   2.54239416
    905,   6.72205162,   2.46567822
    906,   6.55815411,   2.38896203
    907,   6.39425659,   2.31224585
    908,   6.23035955,    2.2355299
    909,   6.06646204,   2.15881371
    910,   5.90256453,   2.08209753
    911,   5.73866701,   2.00538158
    912,    5.5747695,    1.9286654
    913,   5.41087246,   1.85194933
    914,   5.24697495,   1.77523327
    915,   5.08307743,    1.6985172
    916,   4.91917992,   1.62180102
    917,   9.83714867,   3.64315176
    918,   9.67429733,   3.57201767
    919,     9.511446,   3.50088358
    920,   9.34859467,   3.42974949
    921,   9.18574238,   3.35861564
    922,   9.02289104,   3.28748155
    923,   8.86003971,   3.21634746
    924,   8.69718838,   3.14521337
    925,   8.53433704,   3.07407951
    926,   8.37148571,   3.00294542
    927,   8.20863438,   2.93181133
    928,   8.04578304,   2.86067724
    929,   7.88293123,   2.78954339
    930,    7.7200799,    2.7184093
    931,   7.55722857,   2.64727521
    932,   7.39437723,   2.57614112
    933,   7.23152542,   2.50500703
    934,   7.06867409,   2.43387318
    935,   6.90582275,   2.36273909
    936,   6.74297142,     2.291605
    937,   6.58012009,   2.22047091
    938,   6.41726828,   2.14933705
    939,   6.25441694,   2.07820296
    940,   6.09156561,   2.00706887
    941,   5.92871428,    1.9359349
    942,   5.76586246,   1.86480081
    943,   5.60301113,   1.79366684
    944,    5.4401598,   1.72253275
    945,   5.27730846,   1.65139878
    946,   5.11445713,   1.58026469
    947,   4.95160532,   1.50913072
    948,   9.83811951,   3.36299682
    949,   9.67623806,   3.29742217
    950,   9.51435757,   3.23184752
    951,   9.35247707,   3.16627312
    952,   9.19059563,   3.10069847
    953,   9.02871513,   3.03512383
    954,   8.86683464,   2.96954918
    955,   8.70495319,   2.90397453
    956,    8.5430727,   2.83840013
    957,   8.38119221,   2.77282548
    958,   8.21931076,   2.70725083
    959,   8.05743027,   2.64167619
    960,   7.89554977,   2.57610154
    961,    7.7336688,   2.51052713
    962,   7.57178783,   2.44495249
    963,   7.40990734,   2.37937784
    964,   7.24802637,    2.3138032
    965,    7.0861454,   2.24822855
    966,   6.92426491,   2.18265414
    967,   6.76238394,    2.1170795
    968,   6.60050297,   2.05150485
    969,   6.43862247,    1.9859302
    970,    6.2767415,   1.92035568
    971,   6.11486053,   1.85478103
    972,   5.95298004,   1.78920639
    973,   5.79109907,   1.72363186
    974,    5.6292181,   1.65805721
    975,   5.46733761,   1.59248269
    976,   5.30545664,   1.52690804
    977,   5.14357615,   1.46133339
    978,   4.98169518,   1.39575887
    979,   9.83901405,   3.08282113
    980,   9.67802811,   3.02278495
    981,   9.51704216,   2.96274877
    982,   9.35605621,   2.90271282
    983,   9.19507027,   2.84267664
    984,   9.03408432,   2.78264046
    985,   8.87309837,   2.72260451
    986,   8.71211147,   2.66256833
    987,   8.55112553,   2.60253215
    988,   8.39013958,    2.5424962
    989,   8.22915363,   2.48246002
    990,   8.06816769,   2.42242408
    991,   7.90718174,    2.3623879
    992,   7.74619579,   2.30235171
    993,   7.58520985,   2.24231577
    994,    7.4242239,   2.18227959
    995,   7.26323795,    2.1222434
    996,   7.10225201,   2.06220746
    997,   6.94126558,   2.00217128
    998,   6.78027964,   1.94213521
    999,   6.61929369,   1.88209915
   1000,   6.45830774,   1.82206297
   1001,    6.2973218,   1.76202691
   1002,   6.13633585,   1.70199084
   1003,    5.9753499,   1.64195466
   1004,   5.81436348,    1.5819186
   1005,   5.65337753,   1.52188253
   1006,   5.49239159,   1.46184647
   1007,   5.33140564,   1.40181029
   1008,   5.17041969,   1.34177423
   1009,   5.00943375,   1.28173816
   1010,   9.83983231,   2.80262613
   1011,   9.67966461,    2.7481091
   1012,   9.51949787,   2.69359231
   1013,   9.35933018,   2.63907552
   1014,   9.19916248,   2.58455873
   1015,   9.03899479,   2.53004193
   1016,    8.8788271,   2.47552514
   1017,   8.71866035,   2.42100835
   1018,   8.55849266,   2.36649156
   1019,   8.39832497,   2.31197476
   1020,   8.23815727,   2.25745797
   1021,   8.07798958,   2.20294094
   1022,   7.91782236,   2.14842415
   1023,   7.75765467,   2.09390736
   1024,   7.59748745,   2.03939056
   1025,   7.43731976,   1.98487377
   1026,   7.27715206,   1.93035698
   1027,   7.11698484,   1.87584007
   1028,   6.95681715,   1.82132328
   1029,   6.79664993,   1.76680648
   1030,   6.63648224,   1.71228969
   1031,   6.47631454,    1.6577729
   1032,   6.31614733,   1.60325599
   1033,   6.15597963,   1.54873919
   1034,   5.99581194,    1.4942224
   1035,   5.83564472,   1.43970561
   1036,   5.67547703,   1.38518882
   1037,   5.51530981,   1.33067191
   1038,   5.35514212,   1.27615511
   1039,   5.19497442,   1.22163832
   1040,   5.03480721,   1.16712153
   1041,   9.84057426,   2.52241349
   1042,   9.68114853,   2.47339845
   1043,   9.52172279,    2.4243834
   1044,   9.36229706,   2.37536836
   1045,   9.20287132,   2.32635331
   1046,   9.04344559,   2.27733827
   1047,   8.88401985,   2.22832322
   1048,   8.72459412,   2.17930818
   1049,   8.56516838,   2.13029313
   1050,   8.40574265,   2.08127809
   1051,   8.24631691,   2.03226304
   1052,   8.08689117,     1.983248
   1053,   7.92746544,   1.93423295
   1054,    7.7680397,   1.88521791
   1055,   7.60861444,   1.83620286
   1056,   7.44918871,   1.78718781
   1057,   7.28976297,   1.73817277
   1058,   7.13033724,   1.68915772
   1059,    6.9709115,   1.64014268
   1060,   6.81148577,   1.59112763
   1061,   6.65206003,   1.54211259
   1062,    6.4926343,   1.49309754
   1063,   6.33320856,    1.4440825
   1064,   6.17378283,   1.39506745
   1065,   6.01435709,   1.34605241
   1066,   5.85493135,   1.29703736
   1067,   5.69550562,   1.24802232
   1068,   5.53607988,   1.19900727
   1069,   5.37665415,   1.14999223
   1070,   5.21722841,   1.10097718
   1071,   5.05780268,   1.05196214
   1072,   9.84123898,   2.24218512
   1073,   9.68247795,   2.19865608
   1074,   9.52371693,   2.15512705
   1075,    9.3649559,   2.11159801
   1076,   9.20619488,   2.06806898
   1077,   9.04743385,   2.02453995
   1078,   8.88867283,   1.98101091
   1079,    8.7299118,   1.93748188
   1080,   8.57115078,   1.89395273
   1081,   8.41238976,   1.85042369
   1082,   8.25362873,   1.80689466
   1083,   8.09486771,   1.76336563
   1084,   7.93610716,   1.71983659
   1085,   7.77734613,   1.67630744
   1086,   7.61858511,   1.63277841
   1087,   7.45982409,   1.58924937
   1088,   7.30106306,   1.54572034
   1089,   7.14230204,   1.50219131
   1090,   6.98354101,   1.45866215
   1091,   6.82477999,   1.41513312
   1092,   6.66601896,   1.37160408
   1093,   6.50725794,   1.32807505
   1094,   6.34849691,   1.28454602
   1095,   6.18973589,   1.24101698
   1096,   6.03097486,   1.19748783
   1097,   5.87221384,    1.1539588
   1098,   5.71345282,   1.11042976
   1099,   5.55469179,   1.06690073
   1100,   5.39593077,    1.0233717
   1101,   5.23716974,  0.979842603
   1102,   5.07840872,   0.93631351
   1103,   9.84182644,   1.96194291
   1104,   9.68365288,   1.92388582
   1105,   9.52547932,   1.88582861
   1106,    9.3673048,   1.84777153
   1107,   9.20913124,   1.80971444
   1108,   9.05095768,   1.77165735
   1109,   8.89278412,   1.73360014
   1110,   8.73461056,   1.69554305
   1111,     8.576437,   1.65748596
   1112,   8.41826344,   1.61942887
   1113,   8.26008892,   1.58137178
   1114,   8.10191536,   1.54331458
   1115,    7.9437418,   1.50525749
   1116,   7.78556824,    1.4672004
   1117,   7.62739468,   1.42914331
   1118,   7.46922064,   1.39108622
   1119,   7.31104708,   1.35302901
   1120,   7.15287352,   1.31497192
   1121,   6.99469995,   1.27691483
   1122,   6.83652592,   1.23885775
   1123,   6.67835236,   1.20080054
   1124,   6.52017879,   1.16274345
   1125,   6.36200476,   1.12468636
   1126,    6.2038312,   1.08662927
   1127,   6.04565763,   1.04857218
   1128,   5.88748407,   1.01051497
   1129,   5.72931004,  0.972457886
   1130,   5.57113647,  0.934400797
   1131,   5.41296291,  0.896343648
   1132,   5.25478888,   0.85828656
   1133,   5.09661531,  0.820229411
   1134,    9.8423357,   1.68168819
   1135,    9.6846714,   1.64909077
   1136,   9.52700806,   1.61649323
   1137,   9.36934376,    1.5838958
   1138,   9.21167946,   1.55129826
   1139,   9.05401516,   1.51870084
   1140,   8.89635086,    1.4861033
   1141,   8.73868752,   1.45350587
   1142,   8.58102322,   1.42090833
   1143,   8.42335892,   1.38831091
   1144,   8.26569462,   1.35571337
   1145,   8.10803127,   1.32311594
   1146,    7.9503665,   1.29051852
   1147,   7.79270267,   1.25792098
   1148,   7.63503838,   1.22532356
   1149,   7.47737455,   1.19272602
   1150,   7.31971025,   1.16012859
   1151,   7.16204643,   1.12753105
   1152,   7.00438213,   1.09493363
   1153,   6.84671783,   1.06233609
   1154,   6.68905401,   1.02973866
   1155,   6.53138971,  0.997141123
   1156,   6.37372589,  0.964543641
   1157,   6.21606159,  0.931946158
   1158,   6.05839729,  0.899348676
   1159,   5.90073347,  0.866751194
   1160,   5.74306917,  0.834153712
   1161,   5.58540535,   0.80155623
   1162,   5.42774105,  0.768958747
   1163,   5.27007723,  0.736361265
   1164,   5.11241293,  0.703763783
   1165,   9.84276772,   1.40142298
   1166,   9.68553543,   1.37427461
   1167,   9.52830219,   1.34712625
   1168,   9.37106991,   1.31997776
   1169,   9.21383762,   1.29282939
   1170,   9.05660534,   1.26568103
   1171,   8.89937305,   1.23853254
   1172,   8.74213982,   1.21138418
   1173,   8.58490753,   1.18423581
   1174,   8.42767525,   1.15708733
   1175,   8.27044296,   1.12993896
   1176,   8.11321068,   1.10279059
   1177,   7.95597792,   1.07564211
   1178,   7.79874563,   1.04849374
   1179,   7.64151287,   1.02134526
   1180,   7.48428059,  0.994196892
   1181,   7.32704782,  0.967048526
   1182,   7.16981554,    0.9399001
   1183,   7.01258326,  0.912751675
   1184,   6.85535049,  0.885603249
   1185,   6.69811821,  0.858454883
   1186,   6.54088593,  0.831306458
   1187,   6.38365316,  0.804158032
   1188,   6.22642088,  0.777009666
   1189,   6.06918812,   0.74986124
   1190,   5.91195583,  0.722712815
   1191,   5.75472355,  0.695564449
   1192,   5.59749079,  0.668416023
   1193,    5.4402585,  0.641267598
   1194,   5.28302622,  0.614119172
   1195,   5.12579346,  0.586970806
   1196,   9.84312057,   1.12114894
   1197,    9.6862421,   1.09944081
   1198,   9.52936268,   1.07773268
   1199,   9.37248421,   1.05602455
   1200,   9.21560478,   1.03431642
   1201,   9.05872631,   1.01260829
   1202,   8.90184689,  0.990900159
   1203,   8.74496746,  0.969191968
   1204,   8.58808899,  0.947483838
   1205,   8.43120956,  0.925775707
   1206,   8.27433109,  0.904067576
   1207,   8.11745167,  0.882359445
   1208,   7.96057272,  0.860651255
   1209,   7.80369377,  0.838943124
   1210,   7.64681482,  0.817234993
   1211,   7.48993587,  0.795526862
   1212,   7.33305693,  0.773818672
   1213,    7.1761775,  0.752110541
   1214,   7.01929855,   0.73040241
   1215,   6.86241961,  0.708694279
   1216,   6.70554066,  0.686986148
   1217,   6.54866171,  0.665277958
   1218,   6.39178276,  0.643569827
   1219,   6.23490381,  0.621861696
   1220,   6.07802439,  0.600153565
   1221,   5.92114544,  0.578445435
   1222,   5.76426649,  0.556737244
   1223,   5.60738754,  0.535029113
   1224,   5.45050859,  0.513320982
   1225,   5.29362965,  0.491612822
   1226,    5.1367507,  0.469904691
   1227,   9.84339619,  0.840867937
   1228,   9.68679237,  0.824593008
   1229,   9.53018856,  0.808318079
   1230,   9.37358475,  0.792043149
   1231,   9.21697998,   0.77576822
   1232,   9.06037617,  0.759493291
   1233,   8.90377235,  0.743218303
   1234,   8.74716854,  0.726943374
   1235,   8.59056473,  0.710668445
   1236,   8.43396091,  0.694393516
   1237,    8.2773571,  0.678118587
   1238,   8.12075329,  0.661843657
   1239,     7.964149,  0.645568728
   1240,   7.80754519,  0.629293799
   1241,    7.6509409,   0.61301887
   1242,   7.49433708,  0.596743941
   1243,   7.33773327,  0.580469012
   1244,   7.18112946,  0.564194083
   1245,   7.02452564,  0.547919154
   1246,   6.86792135,  0.531644225
   1247,   6.71131754,  0.515369296
   1248,   6.55471373,  0.499094337
   1249,   6.39810991,  0.482819408
   1250,   6.24150562,  0.466544479
   1251,   6.08490181,   0.45026955
   1252,     5.928298,  0.433994621
   1253,   5.77169418,  0.417719692
   1254,   5.61508989,  0.401444763
   1255,   5.45848608,  0.385169834
   1256,   5.30188227,  0.368894905
   1257,   5.14527845,  0.352619946
   1258,   9.84359264,  0.560581565
   1259,   9.68718529,  0.549734533
   1260,   9.53077793,   0.53888756
   1261,   9.37437057,  0.528040528
   1262,   9.21796322,  0.517193496
   1263,   9.06155586,  0.506346464
   1264,   8.90514851,  0.495499492
   1265,   8.74874115,   0.48465246
   1266,   8.59233379,  0.473805457
   1267,   8.43592644,  0.462958455
   1268,   8.27951908,  0.452111423
   1269,   8.12311172,  0.441264421
   1270,   7.96670485,  0.430417389
   1271,   7.81029749,  0.419570386
   1272,   7.65389013,  0.408723384
   1273,   7.49748278,  0.397876352
   1274,   7.34107542,   0.38702935
   1275,   7.18466806,  0.376182348
   1276,   7.02826071,  0.365335315
   1277,   6.87185335,  0.354488313
   1278,     6.715446,  0.343641281
   1279,   6.55903864,  0.332794279
   1280,   6.40263128,  0.321947277
   1281,   6.24622393,  0.311100245
   1282,   6.08981657,  0.300253242
   1283,   5.93340921,   0.28940624
   1284,   5.77700186,  0.278559208
   1285,    5.6205945,  0.267712206
   1286,   5.46418715,  0.256865203
   1287,   5.30777979,  0.246018171
   1288,   5.15137243,  0.235171169
   1289,    9.8437109,  0.280291677
   1290,    9.6874218,  0.274869025
   1291,   9.53113174,  0.269446403
   1292,   9.37484264,  0.264023781
   1293,   9.21855354,  0.258601159
   1294,   9.06226444,  0.253178537
   1295,   8.90597439,  0.247755915
   1296,   8.74968529,  0.242333293
   1297,   8.59339619,  0.236910671
   1298,   8.43710709,  0.231488049
   1299,   8.28081703,  0.226065427
   1300,   8.12452793,  0.220642805
   1301,   7.96823883,  0.215220168
   1302,   7.81194925,  0.209797546
   1303,   7.65566015,  0.204374924
   1304,   7.49937057,  0.198952302
   1305,   7.34308147,   0.19352968
   1306,    7.1867919,  0.188107058
   1307,    7.0305028,  0.182684436
   1308,   6.87421322,  0.177261814
   1309,   6.71792412,  0.171839178
   1310,   6.56163454,  0.166416556
   1311,   6.40534544,  0.160993934
   1312,   6.24905586,  0.155571312
   1313,   6.09276676,   0.15014869
   1314,   5.93647718,  0.144726068
   1315,   5.78018808,  0.139303446
   1316,   5.62389851,  0.133880824
   1317,   5.46760941,  0.128458187
   1318,   5.31131983,  0.123035572
   1319,   5.15503073,  0.117612943
   1320,  0.446074098,   10.3881807
   1321,  0.881507814,    10.522975
   1322,   1.30720294,   10.6498013
   1323,   1.72398496,   10.7693348
   1324,   2.13260913,   10.8821936
   1325,   2.53376675,   10.9889431
   1326,   2.92809105,   11.0901022
   1327,   3.31616068,   11.1861439
   1328,   3.69850612,   11.2775021
   1329,   4.07561207,   11.3645735
   1330,   4.44792318,   11.4477215
   1331,   4.81584549,   11.5272789
   1332,   5.17975092,     11.60355
   1333,   5.53998041,   11.6768131
   1334,   5.89684439,    11.747323
   1335,   6.25062943,   11.8153133
   1336,    6.6015954,   11.8809977
   1337,   6.94998169,   11.9445705
   1338,   7.29600716,   12.0062122
   1339,    7.6398716,   12.0660858
   1340,   7.98175812,    12.124342
   1341,   8.32183456,   12.1811161
   1342,   8.66025352,   12.2365351
   1343,    8.9971571,   12.2907124
   1344,   9.33267212,   12.3437557
   1345,    9.6669178,   12.3957586
   1346,  0.508248806,   10.8070574
   1347,  0.997118354,   11.0384703
   1348,   1.46825123,   11.2562037
   1349,   1.92315042,   11.4614172
   1350,   2.36319208,   11.6551723
   1351,   2.78963518,    11.838439
   1352,   3.20363235,   12.0121078
   1353,   3.60623837,   12.1769905
   1354,   3.99841881,   12.3338327
   1355,   4.38105679,   12.4833164
   1356,   4.75496197,   12.6260643
   1357,   5.12087345,   12.7626467
   1358,    5.4794693,   12.8935881
   1359,   5.83136988,   13.0193653
   1360,   6.17714167,   13.1404152
   1361,    6.5173049,   13.2571402
   1362,    6.8523345,   13.3699064
   1363,   7.18266535,   13.4790487
   1364,   7.50869656,   13.5848742
   1365,   7.83079195,    13.687664
   1366,   8.14928436,   13.7876768
   1367,   8.46448135,   13.8851461
   1368,   8.77665997,   13.9802885
   1369,   9.08607674,   14.0733004
   1370,   9.39296532,   14.1643629
   1371,   9.69754124,   14.2536421
   1372,   0.56098634,   11.2841978
   1373,   1.09518111,   11.5804119
   1374,   1.60485482,   11.8591175
   1375,   2.09208584,   12.1217966
   1376,   2.55877638,   12.3698082
   1377,    3.0066669,   12.6043949
   1378,   3.43735099,   12.8266954
   1379,   3.85228705,   13.0377502
   1380,   4.25280952,    13.238513
   1381,   4.64014006,   13.4298563
   1382,   5.01539707,   13.6125774
   1383,   5.37960339,   13.7874079
   1384,   5.73369551,   13.9550152
   1385,   6.07853079,   14.1160135
   1386,    6.4148941,   14.2709618
   1387,   6.74350309,    14.420373
   1388,   7.06501532,   14.5647163
   1389,   7.38003159,    14.704421
   1390,   7.68910313,   14.8398809
   1391,   7.99273348,   14.9714556
   1392,   8.29138374,    15.099474
   1393,   8.58547592,   15.2242374
   1394,   8.87539673,   15.3460226
   1395,   9.16149902,   15.4650812
   1396,   9.44410801,   15.5816441
   1397,   9.72351742,   15.6959229
   1398,  0.607757688,   11.8510027
   1399,   1.18214989,   12.1844683
   1400,   1.72600436,   12.4982214
   1401,    2.2419095,   12.7939339
   1402,   2.73223376,   13.0731344
   1403,   3.19914556,   13.3372221
   1404,   3.64462876,   13.5874777
   1405,    4.0704999,   13.8250742
   1406,   4.47842073,   14.0510836
   1407,   4.86991262,   14.2664881
   1408,   5.24636841,    14.472188
   1409,   5.60906219,   14.6690035
   1410,   5.95916033,   14.8576889
   1411,   6.29773045,   15.0389338
   1412,   6.62574959,   15.2133675
   1413,   6.94411135,    15.381567
   1414,   7.25363493,   15.5440626
   1415,   7.55506945,   15.7013359
   1416,   7.84910011,   15.8538303
   1417,   8.13635445,   16.0019512
   1418,   8.41740704,   16.1460686
   1419,   8.69278336,   16.2865219
   1420,   8.96296406,   16.4236221
   1421,   9.22838974,   16.5576515
   1422,   9.48946381,   16.6888733
   1423,   9.74655437,    16.817524
   1424,  0.651640832,   12.5447779
   1425,   1.26374841,   12.8903933
   1426,   1.83967304,    13.215579
   1427,   2.38248158,   13.5220652
   1428,   2.89498043,   13.8114386
   1429,   3.37973857,   14.0851488
   1430,   3.83910728,   14.3445225
   1431,   4.27523804,   14.5907764
   1432,   4.69010067,   14.8250208
   1433,   5.08549738,    15.048274
   1434,   5.46307802,   15.2614689
   1435,   5.82435274,    15.465456
   1436,   6.17070341,   15.6610165
   1437,    6.5033946,   15.8488646
   1438,   6.82358456,   16.0296535
   1439,   7.13233232,   16.2039833
   1440,    7.4306078,   16.3723984
   1441,   7.71929884,   16.5354023
   1442,   7.99921751,   16.6934528
   1443,   8.27110672,   16.8469715
   1444,   8.53564835,   16.9963398
   1445,   8.79346371,   17.1419106
   1446,    9.0451231,   17.2840061
   1447,   9.29114914,   17.4229202
   1448,   9.53201866,   17.5589218
   1449,    9.7681694,   17.6922607
   1450,  0.695524037,   13.4111814
   1451,   1.34534681,   13.7446461
   1452,    1.9533416,   14.0583992
   1453,   2.52305341,   14.3541117
   1454,    3.0577271,   14.6333122
   1455,   3.56033182,   14.8973999
   1456,   4.03358555,   15.1476555
   1457,   4.47997618,    15.385252
   1458,   4.90178013,   15.6112614
   1459,   5.30108166,   15.8266659
   1460,   5.67978716,   16.0323658
   1461,   6.03964281,   16.2291813
   1462,   6.38224602,   16.4178677
   1463,   6.70905876,   16.5991116
   1464,   7.02141953,   16.7735443
   1465,    7.3205533,   16.9417458
   1466,   7.60758066,   17.1042404
   1467,   7.88352823,   17.2615147
   1468,   8.14933491,   17.4140091
   1469,   8.40585899,     17.56213
   1470,   8.65388966,   17.7062473
   1471,   8.89414406,   17.8467007
   1472,    9.1272831,    17.983799
   1473,   9.35390949,   18.1178303
   1474,   9.57457447,    18.249052
   1475,   9.78978348,   18.3777027
   1476,  0.742295384,   14.5072336
   1477,   1.43231559,   14.8034487
   1478,   2.07449126,   15.0821533
   1479,   2.67287707,   15.3448324
   1480,   3.23118448,    15.592844
   1481,   3.75281024,   15.8274317
   1482,   4.24086332,   16.0497322
   1483,   4.69818878,   16.2607861
   1484,   5.12739134,   16.4615498
   1485,   5.53085423,   16.6528931
   1486,   5.91075897,   16.8356133
   1487,    6.2691021,   17.0104446
   1488,   6.60771084,   17.1780529
   1489,   6.92825842,   17.3390503
   1490,   7.23227501,   17.4939976
   1491,   7.52116156,   17.6434097
   1492,   7.79620075,   17.7877522
   1493,   8.05856609,   17.9274578
   1494,   8.30933189,   18.0629177
   1495,   8.54948044,   18.1944923
   1496,   8.77991199,   18.3225098
   1497,   9.00145149,   18.4472733
   1498,   9.21485043,   18.5690594
   1499,   9.42079926,    18.688118
   1500,   9.61993027,   18.8046799
   1501,   9.81282139,   18.9189587
   1502,  0.795032918,   15.9050713
   1503,   1.53037834,   16.1364841
   1504,   2.21109486,   16.3542175
   1505,   2.84181261,   16.5594311
   1506,   3.42676878,   16.7531853
   1507,   3.96984196,   16.9364529
   1508,    4.4745822,   17.1101208
   1509,   4.94423771,   17.2750034
   1510,   5.38178205,   17.4318466
   1511,    5.7899375,   17.5813293
   1512,   6.17119408,   17.7240772
   1513,   6.52783155,   17.8606606
   1514,   6.86193705,   17.9916019
   1515,   7.17541981,   18.1173782
   1516,   7.47002745,   18.2384281
   1517,   7.74736023,    18.355154
   1518,   8.00888157,   18.4679203
   1519,   8.25593185,   18.5770626
   1520,   8.48973846,    18.682888
   1521,   8.71142197,    18.785677
   1522,   8.92201138,   18.8856907
   1523,   9.12244606,     18.98316
   1524,   9.31358719,   19.0783024
   1525,    9.4962225,   19.1713142
   1526,   9.67107201,   19.2623768
   1527,   9.83879662,    19.351656
   1528,  0.857207596,   17.6966896
   1529,   1.64598894,   17.8314838
   1530,   2.37214303,   17.9583092
   1531,   3.04097795,   18.0778427
   1532,   3.65735173,   18.1907005
   1533,   4.22571039,    18.297451
   1534,    4.7501235,   18.3986111
   1535,    5.2343154,   18.4946518
   1536,   5.68169498,     18.58601
   1537,   6.09538221,   18.6730824
   1538,   6.47823238,   18.7562294
   1539,   6.83285952,   18.8357868
   1540,   7.16165543,   18.9120579
   1541,   7.46680927,    18.985321
   1542,   7.75032473,   19.0558319
   1543,   8.01403522,   19.1238213
   1544,   8.25962067,   19.1895046
   1545,   8.48861599,   19.2530785
   1546,   8.70242786,   19.3147202
   1547,    8.9023428,   19.3745937
   1548,   9.08953857,   19.4328499
   1549,   9.26509285,    19.489624
   1550,   9.42999363,    19.545042
   1551,   9.58514214,   19.5992203
   1552,   9.73136616,   19.6522636
   1553,   9.86942101,   19.7042675
   1554,    9.4359293,   9.80115223
   1555,   9.07378197,   9.80422306
   1556,    8.7115469,   9.80719471
   1557,   8.34922695,   9.81006527
   1558,   7.98682451,   9.81283188
   1559,    7.6243434,   9.81549263
   1560,   7.26178694,   9.81804466
   1561,   6.89915705,   9.82048702
   1562,   6.53645849,   9.82281685
   1563,   6.17369318,   9.82503128
   1564,    5.8108654,   9.82713032
   1565,    5.4479785,   9.82911015
   1566,    5.0850358,   9.83097172
   1567,   4.72204018,   9.83271027
   1568,   4.35899639,   9.83432674
   1569,   3.99590683,   9.83581924
   1570,   3.63277602,   9.83718586
   1571,   3.26960707,   9.83842564
   1572,   2.90640402,   9.83953857
   1573,   2.54317045,   9.84052181
   1574,   2.17991042,    9.8413763
   1575,   1.81662703,   9.84210014
   1576,   1.45332468,   9.84269333
   1577,   1.09000695,   9.84315586
   1578,  0.726677716,   9.84348583
   1579,  0.363340795,    9.8436842
   1580,   9.24222851,   9.60230446
   1581,   8.88830471,   9.60844517
   1582,   8.53420448,   9.61438847
   1583,    8.1799345,   9.62012959
   1584,   7.82550097,   9.62566376
   1585,   7.47090912,   9.63098526
   1586,   7.11616611,   9.63609028
   1587,    6.7612772,   9.64097404
   1588,      6.40625,   9.64563274
   1589,   6.05109024,   9.65006256
   1590,   5.69580507,   9.65426064
   1591,   5.34040165,   9.65822124
   1592,   4.98488617,   9.66194248
   1593,   4.62926579,   9.66542149
   1594,   4.27354813,   9.66865349
   1595,   3.91773963,   9.67163849
   1596,   3.56184816,   9.67437172
   1597,   3.20588088,   9.67685223
   1598,   2.84984517,   9.67907619
   1599,   2.49374866,   9.68104362
   1600,   2.13759828,   9.68275261
   1601,   1.78140235,   9.68420029
   1602,   1.42516792,   9.68538666
   1603,   1.06890285,   9.68631077
   1604,  0.712614715,   9.68697166
   1605,  0.356311202,   9.68736744
   1606,   9.04852772,   9.40345669
   1607,    8.7028265,   9.41266823
   1608,   8.35686207,   9.42158318
   1609,   8.01064301,   9.43019485
   1610,   7.66417742,   9.43849564
   1611,   7.31747484,   9.44647789
   1612,   6.97054529,   9.45413494
   1613,   6.62339735,   9.46146107
   1614,   6.27604151,   9.46844959
   1615,    5.9284873,    9.4750948
   1616,   5.58074522,      9.48139
   1617,   5.23282433,   9.48733139
   1618,   4.88473654,    9.4929142
   1619,   4.53649139,   9.49813175
   1620,   4.18809986,   9.50298119
   1621,   3.83957243,   9.50745773
   1622,   3.49092054,   9.51155758
   1623,   3.14215469,   9.51527786
   1624,   2.79328632,   9.51861477
   1625,   2.44432664,   9.52156639
   1626,   2.09528637,   9.52412891
   1627,   1.74617755,   9.52630043
   1628,   1.39701116,   9.52808094
   1629,   1.04779875,   9.52946663
   1630,  0.698551714,   9.53045654
   1631,  0.349281609,   9.53105164
   1632,   8.85482693,   9.20460892
   1633,   8.51734924,   9.21689034
   1634,   8.17951965,   9.22877789
   1635,   7.84135103,   9.24026012
   1636,   7.50285387,   9.25132656
   1637,   7.16404104,   9.26196957
   1638,   6.82492447,    9.2721796
   1639,   6.48551798,   9.28194809
   1640,   6.14583349,   9.29126549
   1641,   5.80588436,   9.30012608
   1642,   5.46568489,   9.30852032
   1643,   5.12524748,   9.31644249
   1644,   4.78458691,   9.32388496
   1645,     4.443717,   9.33084202
   1646,    4.1026516,   9.33730793
   1647,   3.76140523,   9.34327698
   1648,   3.41999269,   9.34874344
   1649,   3.07842851,    9.3537035
   1650,   2.73672748,   9.35815334
   1651,   2.39490461,    9.3620882
   1652,   2.05297446,   9.36550522
   1653,   1.71095276,   9.36840057
   1654,    1.3688544,   9.37077427
   1655,   1.02669454,   9.37262154
   1656,  0.684488654,   9.37394238
   1657,  0.342252016,   9.37473583
   1658,   8.66112614,   9.00576019
   1659,   8.33187199,    9.0211134
   1660,   8.00217819,    9.0359726
   1661,   7.67205906,   9.05032444
   1662,   7.34153032,   9.06415844
   1663,   7.01060677,    9.0774622
   1664,   6.67930412,   9.09022522
   1665,   6.34763813,   9.10243511
   1666,     6.015625,   9.11408234
   1667,   5.68328142,   9.12515736
   1668,   5.35062456,   9.13565063
   1669,   5.01767063,   9.14555264
   1670,   4.68443727,   9.15485668
   1671,   4.35094213,   9.16355228
   1672,   4.01720333,   9.17163467
   1673,   3.68323803,   9.17909622
   1674,   3.34906507,    9.1859293
   1675,   3.01470232,   9.19212914
   1676,   2.68016863,   9.19769096
   1677,   2.34548259,   9.20261002
   1678,   2.01066256,   9.20688152
   1679,   1.67572796,   9.21050167
   1680,   1.34069765,    9.2134676
   1681,   1.00559044,    9.2157774
   1682,  0.670425653,   9.21742821
   1683,  0.335222423,   9.21841908
   1684,   8.46742535,   8.80691242
   1685,   8.14639473,   8.82533646
   1686,   7.82483578,   8.84316635
   1687,   7.50276709,   8.86038971
   1688,   7.18020678,   8.87699032
   1689,   6.85717249,   8.89295483
   1690,    6.5336833,   8.90826988
   1691,   6.20975828,   8.92292213
   1692,   5.88541651,   8.93689919
   1693,   5.56067848,   8.95018864
   1694,   5.23556423,   8.96278095
   1695,   4.91009331,   8.97466373
   1696,   4.58428764,   8.98582745
   1697,   4.25816774,    8.9962635
   1698,   3.93175507,   9.00596142
   1699,   3.60507083,   9.01491451
   1700,   3.27813721,   9.02311516
   1701,   2.95097613,   9.03055573
   1702,   2.62360978,   9.03722954
   1703,   2.29606056,   9.04313183
   1704,   1.96835077,   9.04825687
   1705,   1.64050329,   9.05260181
   1706,   1.31254077,   9.05616093
   1707,  0.984486282,    9.0589323
   1708,  0.656362653,   9.06091404
   1709,   0.32819286,   9.06210327
   1710,   8.27372456,   8.60806465
   1711,     7.960917,   8.62955856
   1712,   7.64749336,   8.65036106
   1713,   7.33347511,   8.67045498
   1714,   7.01888275,    8.6898222
   1715,   6.70373821,   8.70844746
   1716,   6.38806248,   8.72631454
   1717,   6.07187843,   8.74340916
   1718,   5.75520849,   8.75971508
   1719,   5.43807554,   8.77521992
   1720,    5.1205039,   8.78991032
   1721,   4.80251646,   8.80377388
   1722,   4.48413801,   8.81679916
   1723,   4.16539335,   8.82897377
   1724,    3.8463068,   8.84028912
   1725,   3.52690363,   8.85073376
   1726,   3.20720959,   8.86030102
   1727,   2.88724995,   8.86898136
   1728,   2.56705093,   8.87676811
   1729,   2.24663854,   8.88365364
   1730,   1.92603886,   8.88963318
   1731,   1.60527849,   8.89470196
   1732,   1.28438401,   8.89885426
   1733,  0.963382125,   8.90208817
   1734,  0.642299592,   8.90439987
   1735,  0.321163267,   8.90578747
   1736,   8.08002472,   8.40921688
   1737,   7.77543926,   8.43378162
   1738,   7.47015095,   8.45755577
   1739,   7.16418314,   8.48051929
   1740,    6.8575592,   8.50265408
   1741,   6.55030394,   8.52394009
   1742,   6.24244165,   8.54436016
   1743,   5.93399858,   8.56389618
   1744,        5.625,   8.58253193
   1745,    5.3154726,   8.60025215
   1746,   5.00544357,   8.61704063
   1747,   4.69493961,   8.63288498
   1748,   4.38398838,   8.64776993
   1749,   4.07261896,   8.66168404
   1750,   3.76085854,   8.67461586
   1751,   3.44873643,     8.686553
   1752,   3.13628173,   8.69748688
   1753,   2.82352376,     8.707407
   1754,   2.51049209,   8.71630573
   1755,   2.19721651,   8.72417545
   1756,   1.88372684,   8.73100948
   1757,    1.5700537,    8.7368021
   1758,   1.25622725,   8.74154758
   1759,  0.942278028,   8.74524307
   1760,  0.628236592,   8.74788475
   1761,  0.314133674,   8.74947166
   1762,   7.88632345,   8.21036911
   1763,   7.58996201,   8.23800373
   1764,   7.29280901,   8.26474953
   1765,   6.99489117,   8.29058456
   1766,   6.69623566,   8.31548595
   1767,   6.39686966,   8.33943272
   1768,   6.09682131,   8.36240482
   1769,   5.79611874,    8.3843832
   1770,   5.49479151,   8.40534782
   1771,   5.19286966,   8.42528343
   1772,   4.89038324,   8.44417095
   1773,   4.58736229,   8.46199512
   1774,   4.28383923,   8.47874165
   1775,   3.97984433,   8.49439526
   1776,   3.67541027,    8.5089426
   1777,   3.37056923,   8.52237225
   1778,   3.06535411,   8.53467274
   1779,   2.75979757,   8.54583359
   1780,   2.45393324,   8.55584431
   1781,   2.14779449,   8.56469822
   1782,   1.84141493,   8.57238579
   1783,    1.5348289,   8.57890224
   1784,    1.2280705,   8.58424187
   1785,  0.921173871,   8.58839893
   1786,  0.614173591,   8.59137058
   1787,  0.307104081,   8.59315491
   1788,   7.69262314,   8.01152134
   1789,   7.40448427,   8.04222679
   1790,   7.11546659,   8.07194424
   1791,   6.82559967,   8.10064983
   1792,   6.53491211,   8.12831783
   1793,   6.24343538,   8.15492535
   1794,   5.95120049,   8.18044949
   1795,   5.65823889,   8.20487022
   1796,   5.36458349,   8.22816467
   1797,   5.07026672,   8.25031471
   1798,   4.77532291,   8.27130127
   1799,   4.47978544,   8.29110622
   1800,   4.18368959,   8.30971241
   1801,    3.8870697,   8.32710552
   1802,   3.58996201,   8.34326935
   1803,   3.29240203,   8.35819149
   1804,   2.99442625,    8.3718586
   1805,   2.69607139,   8.38425922
   1806,   2.39737439,   8.39538288
   1807,   2.09837246,   8.40522003
   1808,   1.79910302,   8.41376209
   1809,   1.49960423,   8.42100239
   1810,   1.19991374,    8.4269352
   1811,  0.900069714,   8.43155384
   1812,  0.600110531,   8.43485641
   1813,  0.300074488,    8.4368391
   1814,   7.49892235,   7.81267357
   1815,   7.21900702,   7.84644938
   1816,   6.93812466,   7.87913895
   1817,    6.6563077,   7.91071463
   1818,   6.37358856,   7.94114923
   1819,   6.09000111,    7.9704175
   1820,   5.80557966,   7.99849463
   1821,   5.52035904,   8.02535725
   1822,     5.234375,   8.05098152
   1823,   4.94766378,   8.07534599
   1824,   4.66026258,   8.09843063
   1825,    4.3722086,   8.12021637
   1826,   4.08353996,   8.14068413
   1827,   3.79429531,   8.15981579
   1828,   3.50451374,   8.17759705
   1829,   3.21423483,   8.19401073
   1830,   2.92349863,   8.20904446
   1831,    2.6323452,   8.22268486
   1832,   2.34081554,    8.2349205
   1833,   2.04895043,   8.24574184
   1834,   1.75679111,    8.2551384
   1835,   1.46437943,   8.26310253
   1836,   1.17175686,   8.26962852
   1837,  0.878965616,    8.2747097
   1838,   0.58604753,   8.27834225
   1839,  0.293044925,    8.2805233
   1840,   7.30522156,    7.6138258
   1841,   7.03352928,   7.65067196
   1842,   6.76078224,   7.68633318
   1843,   6.48701572,   7.72077942
   1844,   6.21226501,   7.75398111
   1845,   5.93656683,   7.78591013
   1846,   5.65995884,   7.81653976
   1847,   5.38247919,   7.84584379
   1848,   5.10416651,   7.87379742
   1849,   4.82506084,   7.90037775
   1850,   4.54520226,   7.92556143
   1851,   4.26463127,   7.94932699
   1852,   3.98339033,   7.97165537
   1853,   3.70152068,   7.99252653
   1854,   3.41906548,   8.01192379
   1855,   3.13606763,   8.02982998
   1856,   2.85257077,   8.04623032
   1857,   2.56861901,    8.0611105
   1858,    2.2842567,   8.07445908
   1859,   1.99952829,   8.08626366
   1860,   1.71447921,    8.0965147
   1861,   1.42915463,   8.10520267
   1862,   1.14360011,   8.11232185
   1863,  0.857861459,   8.11786461
   1864,  0.571984529,   8.12182808
   1865,  0.286015332,   8.12420654
   1866,   7.11152077,   7.41497755
   1867,   6.84805202,   7.45489454
   1868,    6.5834403,   7.49352789
   1869,   6.31772375,   7.53084421
   1870,   6.05094147,   7.56681252
   1871,   5.78313255,   7.60140276
   1872,   5.51433849,   7.63458443
   1873,   5.24459934,   7.66633081
   1874,   4.97395849,   7.69661427
   1875,    4.7024579,   7.72540903
   1876,   4.43014193,   7.75269127
   1877,   4.15705442,   7.77843761
   1878,    3.8832407,   7.80262661
   1879,   3.60874629,   7.82523727
   1880,   3.33361721,   7.84625053
   1881,   3.05790043,   7.86564922
   1882,   2.78164315,   7.88341618
   1883,   2.50489283,   7.89953661
   1884,   2.22769785,   7.91399717
   1885,   1.95010626,   7.92678547
   1886,    1.6721673,   7.93789053
   1887,   1.39392984,    7.9473033
   1888,   1.11544335,   7.95501518
   1889,  0.836757302,   7.96102047
   1890,  0.557921469,   7.96531343
   1891,  0.278985739,   7.96789074
   1892,   6.91782045,   7.21612978
   1893,   6.66257429,   7.25911713
   1894,   6.40609789,   7.30072212
   1895,   6.14843178,   7.34090948
   1896,   5.88961792,   7.37964439
   1897,   5.62969828,   7.41689491
   1898,   5.36871767,   7.45262957
   1899,   5.10671949,   7.48681784
   1900,      4.84375,   7.51943064
   1901,   4.57985497,   7.55044031
   1902,    4.3150816,   7.57982159
   1903,   4.04947758,   7.60754824
   1904,   3.78309107,   7.63359785
   1905,    3.5159719,   7.65794754
   1906,   3.24816895,   7.68057775
   1907,   2.97973323,   7.70146847
   1908,   2.71071529,   7.72060204
   1909,   2.44116664,   7.73796272
   1910,     2.171139,   7.75353575
   1911,   1.90068424,   7.76730776
   1912,   1.62985539,   7.77926683
   1913,   1.35870516,   7.78940344
   1914,   1.08728659,   7.79770899
   1915,  0.815653205,   7.80417585
   1916,  0.543858469,   7.80879927
   1917,  0.271956146,   7.81157446
   1918,   6.72411966,   7.01728201
   1919,   6.47709656,   7.06334019
   1920,   6.22875547,   7.10791683
   1921,    5.9791398,   7.15097427
   1922,   5.72829437,   7.19247627
   1923,     5.476264,   7.23238754
   1924,   5.22309685,   7.27067471
   1925,   4.96883965,   7.30730486
   1926,   4.71354151,   7.34224701
   1927,   4.45725203,   7.37547207
   1928,   4.20002127,   7.40695143
   1929,   3.94190049,   7.43665886
   1930,   3.68294168,   7.46456909
   1931,   3.42319727,   7.49065828
   1932,   3.16272092,    7.5149045
   1933,   2.90156603,   7.53728724
   1934,   2.63978767,    7.5577879
   1935,   2.37744045,   7.57638884
   1936,   2.11457992,   7.59307384
   1937,   1.85126221,   7.60782957
   1938,   1.58754349,   7.62064314
   1939,   1.32348037,   7.63150406
   1940,   1.05912983,   7.64040232
   1941,  0.794549048,   7.64733124
   1942,  0.529795468,   7.65228462
   1943,  0.264926583,   7.65525866
   1944,   6.53041887,   6.81843424
   1945,    6.2916193,   6.86756277
   1946,   6.05141354,   6.91511106
   1947,   5.80984783,   6.96103907
   1948,   5.56697035,   7.00530815
   1949,    5.3228302,   7.04788017
   1950,   5.07747602,   7.08871937
   1951,    4.8309598,   7.12779188
   1952,   4.58333349,   7.16506338
   1953,   4.33464909,   7.20050335
   1954,   4.08496094,   7.23408175
   1955,   3.83432341,   7.26576948
   1956,   3.58279204,   7.29554033
   1957,   3.33042288,   7.32336903
   1958,   3.07727265,   7.34923172
   1959,   2.82339883,   7.37310648
   1960,   2.56885982,   7.39497375
   1961,   2.31371427,   7.41481447
   1962,   2.05802107,   7.43261194
   1963,   1.80184019,   7.44835138
   1964,   1.54523158,   7.46201944
   1965,   1.28825557,    7.4736042
   1966,   1.03097308,   7.48309612
   1967,  0.773444891,   7.49048662
   1968,  0.515732467,   7.49577045
   1969,   0.25789699,   7.49894238
   1970,   6.33671808,   6.61958647
   1971,   6.10614157,   6.67178535
   1972,   5.87407112,   6.72230577
   1973,   5.64055586,   6.77110434
   1974,    5.4056468,   6.81813955
   1975,   5.16939592,    6.8633728
   1976,   4.93185568,   6.90676451
   1977,   4.69307995,   6.94827843
   1978,     4.453125,   6.98787975
   1979,   4.21204615,   7.02553511
   1980,   3.96990061,   7.06121159
   1981,   3.72674632,    7.0948801
   1982,   3.48264241,   7.12651157
   1983,   3.23764825,   7.15607929
   1984,   2.99182439,   7.18355846
   1985,   2.74523163,   7.20892572
   1986,    2.4979322,   7.23215961
   1987,   2.24998808,   7.25324059
   1988,   2.00146222,   7.27215052
   1989,   1.75241816,   7.28887367
   1990,   1.50291967,   7.30339575
   1991,   1.25303078,   7.31570435
   1992,    1.0028162,   7.32578945
   1993,  0.752340794,   7.33364201
   1994,  0.501669407,   7.33925581
   1995,  0.250867397,   7.34262609
   1996,   6.14301777,   6.42073822
   1997,   5.92066431,   6.47600794
   1998,   5.69672918,   6.52950001
   1999,   5.47126436,   6.58116913
   2000,   5.24432325,   6.63097143
   2001,   5.01596165,   6.67886496
   2002,   4.78623486,   6.72480965
   2003,    4.5552001,   6.76876545
   2004,   4.32291651,    6.8106966
   2005,   4.08944321,   6.85056639
   2006,   3.85484028,    6.8883419
   2007,   3.61916947,   6.92399073
   2008,   3.38249278,   6.95748281
   2009,   3.14487386,   6.98879004
   2010,   2.90637612,   7.01788568
   2011,   2.66706443,   7.04474497
   2012,   2.42700458,   7.06934547
   2013,   2.18626189,   7.09166622
   2014,   1.94490337,   7.11168861
   2015,   1.70299613,   7.12939548
   2016,   1.46060777,   7.14477158
   2017,   1.21780598,   7.15780449
   2018,  0.974659443,   7.16848278
   2019,  0.731236637,   7.17679739
   2020,  0.487606406,   7.18274164
   2021,  0.243837804,   7.18631029
   2022,   5.94931698,   6.22189045
   2023,   5.73518658,   6.28023052
   2024,   5.51938677,   6.33669424
   2025,   5.30197239,   6.39123392
   2026,   5.08299971,   6.44380331
   2027,   4.86252737,   6.49435759
   2028,   4.64061403,   6.54285431
   2029,   4.41732073,   6.58925247
   2030,   4.19270849,   6.63351297
   2031,   3.96684027,   6.67559767
   2032,   3.73977995,   6.71547174
   2033,   3.51159239,   6.75310135
   2034,   3.28234339,   6.78845406
   2035,   3.05209923,    6.8215003
   2036,   2.82092786,   6.85221243
   2037,   2.58889723,   6.88056421
   2038,   2.35607672,   6.90653133
   2039,   2.12253571,   6.93009233
   2040,   1.88834453,   6.95122719
   2041,   1.65357411,    6.9699173
   2042,   1.41829586,   6.98614788
   2043,   1.18258131,   6.99990463
   2044,  0.946502686,   7.01117659
   2045,   0.71013248,   7.01995277
   2046,  0.473543376,   7.02622747
   2047,  0.236808226,   7.02999401
   2048,   5.75561619,   6.02304268
   2049,   5.54970932,   6.08445358
   2050,   5.34204483,   6.14388895
   2051,   5.13268042,   6.20129919
   2052,   4.92167616,   6.25663519
   2053,   4.70909309,   6.30985022
   2054,   4.49499321,   6.36089945
   2055,   4.27944088,   6.40973949
   2056,       4.0625,   6.45632935
   2057,   3.84423733,   6.50062943
   2058,   3.62471962,   6.54260206
   2059,    3.4040153,   6.58221197
   2060,   3.18219376,    6.6194253
   2061,   2.95932484,   6.65421104
   2062,   2.73547959,   6.68653965
   2063,   2.51073003,   6.71638346
   2064,    2.2851491,   6.74371719
   2065,   2.05880952,   6.76851797
   2066,   1.83178568,   6.79076529
   2067,   1.60415208,   6.81043959
   2068,   1.37598383,   6.82752419
   2069,   1.14735651,   6.84200525
   2070,  0.918345928,   6.85386992
   2071,  0.689028382,   6.86310863
   2072,  0.459480375,   6.86971283
   2073,  0.229778633,   6.87367821
   2074,    5.5619154,   5.82419491
   2075,   5.36423159,   5.88867617
   2076,   5.16470242,   5.95108318
   2077,   4.96338844,   6.01136398
   2078,   4.76035261,   6.06946659
   2079,   4.55565882,   6.12534285
   2080,   4.34937286,   6.17894459
   2081,   4.14156103,   6.23022652
   2082,   3.93229175,   6.27914572
   2083,   3.72163439,   6.32566071
   2084,   3.50965929,    6.3697319
   2085,   3.29643846,   6.41132259
   2086,   3.08204412,   6.45039654
   2087,   2.86655021,   6.48692179
   2088,   2.65003133,   6.52086639
   2089,   2.43256283,   6.55220222
   2090,   2.21422124,   6.58090305
   2091,   1.99508333,   6.60694408
   2092,   1.77522683,   6.63030338
   2093,   1.55473006,    6.6509614
   2094,   1.33367193,   6.66890049
   2095,   1.11213171,    6.6841054
   2096,  0.890189111,   6.69656324
   2097,  0.667924225,   6.70626402
   2098,  0.445417345,   6.71319866
   2099,  0.222749054,   6.71736193
   2100,   5.36821508,   5.62534666
   2101,   5.17875433,   5.69289875
   2102,      4.98736,   5.75827789
   2103,   4.79409647,   5.82142878
   2104,   4.59902906,   5.88229847
   2105,   4.40222454,     5.940835
   2106,   4.20375204,   5.99698925
   2107,   4.00368118,   6.05071354
   2108,   3.80208325,   6.10196209
   2109,   3.59903145,   6.15069246
   2110,   3.39459896,   6.19686222
   2111,   3.18886137,   6.24043322
   2112,   2.98189449,   6.28136778
   2113,   2.77377582,   6.31963205
   2114,   2.56458306,   6.35519361
   2115,   2.35439587,   6.38802147
   2116,   2.14329362,   6.41808891
   2117,   1.93135715,    6.4453702
   2118,   1.71866798,   6.46984196
   2119,   1.50530803,   6.49148321
   2120,   1.29136002,   6.51027679
   2121,   1.07690692,   6.52620554
   2122,  0.862032354,   6.53925705
   2123,  0.646820068,    6.5494194
   2124,  0.431354344,   6.55668449
   2125,  0.215719461,   6.56104565
   2126,   5.17451429,   5.42649889
   2127,    4.9932766,   5.49712133
   2128,   4.81001806,   5.56547213
   2129,    4.6248045,   5.63149357
   2130,   4.43770552,   5.69513035
   2131,   4.24879026,   5.75632763
   2132,   4.05813122,   5.81503439
   2133,   3.86580133,   5.87120056
   2134,     3.671875,   5.92477894
   2135,   3.47642851,   5.97572374
   2136,   3.27953863,   6.02399254
   2137,   3.08128428,   6.06954384
   2138,    2.8817451,   6.11233902
   2139,   2.68100119,    6.1523428
   2140,    2.4791348,   6.18952036
   2141,   2.27622867,   6.22384071
   2142,   2.07236576,   6.25527477
   2143,   1.86763096,   6.28379583
   2144,   1.66210914,   6.30938005
   2145,   1.45588613,    6.3320055
   2146,   1.24904811,    6.3516531
   2147,   1.04168224,   6.36830568
   2148,  0.833875597,   6.38195038
   2149,  0.625715971,   6.39257479
   2150,  0.417291313,   6.40016985
   2151,  0.208689868,   6.40472984
   2152,    4.9808135,   5.22765112
   2153,   4.80779934,   5.30134392
   2154,   4.63267565,   5.37266684
   2155,   4.45551252,   5.44155884
   2156,   4.27638197,   5.50796175
   2157,   4.09535599,   5.57182026
   2158,   3.91251063,   5.63307953
   2159,   3.72792149,   5.69168758
   2160,   3.54166675,   5.74759531
   2161,   3.35382557,   5.80075502
   2162,    3.1644783,   5.85112238
   2163,   2.97370744,   5.89865398
   2164,   2.78159547,   5.94331026
   2165,    2.5882268,   5.98505306
   2166,   2.39368653,    6.0238471
   2167,   2.19806147,   6.05965996
   2168,   2.00143814,   6.09246063
   2169,   1.80390477,   6.12222195
   2170,   1.60555029,   6.14891815
   2171,    1.4064641,   6.17252731
   2172,   1.20673621,   6.19302893
   2173,   1.00645745,    6.2104063
   2174,   0.80571878,   6.22464371
   2175,  0.604611814,   6.23573017
   2176,  0.403228283,   6.24365568
   2177,   0.20166029,   6.24841356
   2178,   4.78711271,   5.02880335
   2179,   4.62232161,    5.1055665
   2180,   4.45533371,   5.17986107
   2181,   4.28622103,   5.25162363
   2182,   4.11505795,   5.32079363
   2183,   3.94192195,   5.38731289
   2184,   3.76688981,   5.45112419
   2185,   3.59004164,   5.51217461
   2186,   3.41145825,   5.57041168
   2187,   3.23122239,   5.62578678
   2188,   3.04941821,    5.6782527
   2189,   2.86613035,   5.72776461
   2190,   2.68144584,    5.7742815
   2191,   2.49545217,   5.81776381
   2192,   2.30823851,   5.85817432
   2193,   2.11989427,    5.8954792
   2194,   1.93051028,   5.92964649
   2195,   1.74017859,   5.96064758
   2196,   1.54899144,   5.98845673
   2197,   1.35704207,   6.01304913
   2198,    1.1644243,   6.03440523
   2199,  0.971232653,   6.05250645
   2200,  0.777562022,   6.06733751
   2201,  0.583507657,   6.07888556
   2202,  0.389165282,   6.08714104
   2203,  0.194630697,   6.09209728
   2204,    4.5934124,   4.82995558
   2205,   4.43684435,   4.90978956
   2206,   4.27799129,   4.98705578
   2207,   4.11692905,   5.06168842
   2208,   3.95373464,   5.13362551
   2209,   3.78848767,   5.20280504
   2210,   3.62126923,   5.26916933
   2211,   3.45216179,   5.33266163
   2212,      3.28125,   5.39322805
   2213,   3.10861945,   5.45081806
   2214,   2.93435788,   5.50538254
   2215,   2.75855327,   5.55687523
   2216,   2.58129621,   5.60525274
   2217,   2.40267777,   5.65047455
   2218,   2.22279024,   5.69250107
   2219,   2.04172707,   5.73129845
   2220,   1.85958254,   5.76683235
   2221,    1.6764524,    5.7990737
   2222,   1.49243248,   5.82799482
   2223,   1.30762005,   5.85357141
   2224,   1.12211239,   5.87578154
   2225,  0.936007917,   5.89460659
   2226,  0.749405265,   5.91003084
   2227,   0.56240356,   5.92204094
   2228,  0.375102252,   5.93062687
   2229,  0.187601119,   5.93578148
   2230,   4.39971161,   4.63110733
   2231,   4.25136662,   4.71401215
   2232,   4.10064888,   4.79425001
   2233,   3.94763708,   4.87175369
   2234,   3.79241085,   4.94645739
   2235,    3.6350534,   5.01829767
   2236,    3.4756484,   5.08721399
   2237,   3.31428194,   5.15314865
   2238,   3.15104175,    5.2160449
   2239,   2.98601651,   5.27584982
   2240,   2.81929755,   5.33251286
   2241,   2.65097642,   5.38598585
   2242,   2.48114681,   5.43622398
   2243,   2.30990314,   5.48318481
   2244,   2.13734198,   5.52682829
   2245,   1.96355975,   5.56711721
   2246,    1.7886548,   5.60401821
   2247,   1.61272621,   5.63749981
   2248,   1.43587363,   5.66753292
   2249,   1.25819802,   5.69409323
   2250,   1.07980049,   5.71715784
   2251,  0.900783122,   5.73670673
   2252,  0.721248448,   5.75272417
   2253,  0.541299403,   5.76519632
   2254,  0.361039251,    5.7741127
   2255,  0.180571526,    5.7794652
   2256,   4.20601082,   4.43225956
   2257,   4.06588936,   4.51823473
   2258,   3.92330694,   4.60144424
   2259,   3.77834511,   4.68181849
   2260,    3.6310873,   4.75928879
   2261,   3.48161912,    4.8337903
   2262,   3.33002782,   4.90525913
   2263,   3.17640209,   4.97363567
   2264,   3.02083325,   5.03886127
   2265,   2.86341357,    5.1008811
   2266,   2.70423722,    5.1596427
   2267,   2.54339933,   5.21509647
   2268,   2.38099718,    5.2671957
   2269,   2.21712875,   5.31589556
   2270,   2.05189371,   5.36115503
   2271,   1.88539255,   5.40293646
   2272,   1.71772707,   5.44120407
   2273,   1.54900002,   5.47592545
   2274,   1.37931478,    5.5070715
   2275,     1.208776,   5.53461504
   2276,   1.03748858,   5.55853415
   2277,  0.865558386,   5.57880735
   2278,  0.693091691,   5.59541798
   2279,  0.520195246,   5.60835171
   2280,  0.346976221,   5.61759806
   2281,  0.173541948,   5.62314939
   2282,   4.01231003,   4.23341179
   2283,   3.88041186,   4.32245731
   2284,   3.74596477,   4.40863895
   2285,   3.60905313,   4.49188328
   2286,   3.46976376,   4.57212067
   2287,   3.32818484,   4.64928293
   2288,     3.184407,   4.72330427
   2289,   3.03852224,   4.79412222
   2290,     2.890625,   4.86167765
   2291,   2.74081063,   4.92591238
   2292,   2.58917689,   4.98677301
   2293,   2.43582225,    5.0442071
   2294,   2.28084755,   5.09816694
   2295,   2.12435436,   5.14860582
   2296,   1.96644545,   5.19548225
   2297,   1.80722535,    5.2387557
   2298,   1.64679933,   5.27838993
   2299,   1.48527384,   5.31435156
   2300,   1.32275593,   5.34660959
   2301,   1.15935397,   5.37513733
   2302,  0.995176613,   5.39990997
   2303,  0.830333591,    5.4209075
   2304,  0.664934933,   5.43811131
   2305,  0.499091119,   5.45150709
   2306,   0.33291319,   5.46108389
   2307,  0.166512355,   5.46683311
   2308,   3.81860948,   4.03456402
   2309,   3.69493437,    4.1266799
   2310,   3.56862259,   4.21583319
   2311,   3.43976116,   4.30194855
   2312,   3.30844021,   4.38495255
   2313,   3.17475057,   4.46477509
   2314,   3.03878641,   4.54134893
   2315,   2.90064263,   4.61460924
   2316,   2.76041675,   4.68449402
   2317,   2.61820769,   4.75094414
   2318,   2.47411656,   4.81390285
   2319,    2.3282454,   4.87331772
   2320,   2.18069792,   4.92913818
   2321,   2.03157973,   4.98131657
   2322,   1.88099718,     5.029809
   2323,   1.72905815,   5.07457495
   2324,   1.57587159,   5.11557579
   2325,   1.42154765,   5.15277719
   2326,   1.26619709,   5.18614769
   2327,   1.10993195,   5.21565914
   2328,  0.952864707,   5.24128628
   2329,  0.795108855,   5.26300764
   2330,  0.636778116,   5.28080463
   2331,  0.477986991,   5.29466248
   2332,  0.318850189,   5.30456972
   2333,  0.159482762,   5.31051683
   2334,   3.62490892,   3.83571601
   2335,   3.50945687,   3.93090272
   2336,   3.39128017,    4.0230279
   2337,   3.27046943,   4.11201334
   2338,   3.14711666,   4.19778442
   2339,   3.02131653,   4.28026772
   2340,   2.89316559,   4.35939407
   2341,   2.76276278,   4.43509626
   2342,   2.63020825,   4.50731039
   2343,   2.49560475,   4.57597542
   2344,   2.35905623,   4.64103317
   2345,   2.22066832,   4.70242834
   2346,   2.08054829,   4.76010942
   2347,   1.93880522,   4.81402683
   2348,   1.79554892,   4.86413622
   2349,   1.65089095,   4.91039419
   2350,   1.50494385,   4.95276165
   2351,   1.35782146,   4.99120331
   2352,   1.20963824,   5.02568626
   2353,   1.06050992,   5.05618095
   2354,    0.9105528,   5.08266258
   2355,  0.759884059,   5.10510778
   2356,  0.608621359,   5.12349844
   2357,  0.456882864,   5.13781786
   2358,  0.304787159,   5.14805508
   2359,  0.152453184,   5.15420103
*Element, type=CPS3
   1,    1,    9,  138
   2,    9,  266,  138
   3,    9,   10,  266
   4,   10,  267,  266
   5,   10,   11,  267
   6,   11,  268,  267
   7,   11,   12,  268
   8,   12,  269,  268
   9,   12,   13,  269
  10,   13,  270,  269
  11,   13,   14,  270
  12,   14,  271,  270
  13,   14,   15,  271
  14,   15,  272,  271
  15,   15,   16,  272
  16,   16,  273,  272
  17,   16,   17,  273
  18,   17,  274,  273
  19,   17,   18,  274
  20,   18,  275,  274
  21,   18,   19,  275
  22,   19,  276,  275
  23,   19,   20,  276
  24,   20,  277,  276
  25,   20,   21,  277
  26,   21,  278,  277
  27,   21,   22,  278
  28,   22,  279,  278
  29,   22,   23,  279
  30,   23,  280,  279
  31,   23,   24,  280
  32,   24,  281,  280
  33,   24,   25,  281
  34,   25,  282,  281
  35,   25,   26,  282
  36,   26,  283,  282
  37,   26,   27,  283
  38,   27,  284,  283
  39,   27,   28,  284
  40,   28,  285,  284
  41,   28,   29,  285
  42,   29,  286,  285
  43,   29,   30,  286
  44,   30,  287,  286
  45,   30,   31,  287
  46,   31,  288,  287
  47,   31,   32,  288
  48,   32,  289,  288
  49,   32,   33,  289
  50,   33,  290,  289
  51,   33,   34,  290
  52,   34,  291,  290
  53,   34,   35,  291
  54,   35,  292,  291
  55,   35,   36,  292
  56,   36,  293,  292
  57,   36,   37,  293
  58,   37,  294,  293
  59,   37,   38,  294
  60,   38,  295,  294
  61,   38,   39,  295
  62,   39,  296,  295
  63,   39,    2,  296
  64,    2,   40,  296
  65,  138,  266,  137
  66,  266,  297,  137
  67,  266,  267,  297
  68,  267,  298,  297
  69,  267,  268,  298
  70,  268,  299,  298
  71,  268,  269,  299
  72,  269,  300,  299
  73,  269,  270,  300
  74,  270,  301,  300
  75,  270,  271,  301
  76,  271,  302,  301
  77,  271,  272,  302
  78,  272,  303,  302
  79,  272,  273,  303
  80,  273,  304,  303
  81,  273,  274,  304
  82,  274,  305,  304
  83,  274,  275,  305
  84,  275,  306,  305
  85,  275,  276,  306
  86,  276,  307,  306
  87,  276,  277,  307
  88,  277,  308,  307
  89,  277,  278,  308
  90,  278,  309,  308
  91,  278,  279,  309
  92,  279,  310,  309
  93,  279,  280,  310
  94,  280,  311,  310
  95,  280,  281,  311
  96,  281,  312,  311
  97,  281,  282,  312
  98,  282,  313,  312
  99,  282,  283,  313
 100,  283,  314,  313
 101,  283,  284,  314
 102,  284,  315,  314
 103,  284,  285,  315
 104,  285,  316,  315
 105,  285,  286,  316
 106,  286,  317,  316
 107,  286,  287,  317
 108,  287,  318,  317
 109,  287,  288,  318
 110,  288,  319,  318
 111,  288,  289,  319
 112,  289,  320,  319
 113,  289,  290,  320
 114,  290,  321,  320
 115,  290,  291,  321
 116,  291,  322,  321
 117,  291,  292,  322
 118,  292,  323,  322
 119,  292,  293,  323
 120,  293,  324,  323
 121,  293,  294,  324
 122,  294,  325,  324
 123,  294,  295,  325
 124,  295,  326,  325
 125,  295,  296,  326
 126,  296,  327,  326
 127,  296,   40,  327
 128,   40,   41,  327
 129,  137,  297,  136
 130,  297,  328,  136
 131,  297,  298,  328
 132,  298,  329,  328
 133,  298,  299,  329
 134,  299,  330,  329
 135,  299,  300,  330
 136,  300,  331,  330
 137,  300,  301,  331
 138,  301,  332,  331
 139,  301,  302,  332
 140,  302,  333,  332
 141,  302,  303,  333
 142,  303,  334,  333
 143,  303,  304,  334
 144,  304,  335,  334
 145,  304,  305,  335
 146,  305,  336,  335
 147,  305,  306,  336
 148,  306,  337,  336
 149,  306,  307,  337
 150,  307,  338,  337
 151,  307,  308,  338
 152,  308,  339,  338
 153,  308,  309,  339
 154,  309,  340,  339
 155,  309,  310,  340
 156,  310,  341,  340
 157,  310,  311,  341
 158,  311,  342,  341
 159,  311,  312,  342
 160,  312,  343,  342
 161,  312,  313,  343
 162,  313,  344,  343
 163,  313,  314,  344
 164,  314,  345,  344
 165,  314,  315,  345
 166,  315,  346,  345
 167,  315,  316,  346
 168,  316,  347,  346
 169,  316,  317,  347
 170,  317,  348,  347
 171,  317,  318,  348
 172,  318,  349,  348
 173,  318,  319,  349
 174,  319,  350,  349
 175,  319,  320,  350
 176,  320,  351,  350
 177,  320,  321,  351
 178,  321,  352,  351
 179,  321,  322,  352
 180,  322,  353,  352
 181,  322,  323,  353
 182,  323,  354,  353
 183,  323,  324,  354
 184,  324,  355,  354
 185,  324,  325,  355
 186,  325,  356,  355
 187,  325,  326,  356
 188,  326,  357,  356
 189,  326,  327,  357
 190,  327,  358,  357
 191,  327,   41,  358
 192,   41,   42,  358
 193,  136,  328,  135
 194,  328,  359,  135
 195,  328,  329,  359
 196,  329,  360,  359
 197,  329,  330,  360
 198,  330,  361,  360
 199,  330,  331,  361
 200,  331,  362,  361
 201,  331,  332,  362
 202,  332,  363,  362
 203,  332,  333,  363
 204,  333,  364,  363
 205,  333,  334,  364
 206,  334,  365,  364
 207,  334,  335,  365
 208,  335,  366,  365
 209,  335,  336,  366
 210,  336,  367,  366
 211,  336,  337,  367
 212,  337,  368,  367
 213,  337,  338,  368
 214,  338,  369,  368
 215,  338,  339,  369
 216,  339,  370,  369
 217,  339,  340,  370
 218,  340,  371,  370
 219,  340,  341,  371
 220,  341,  372,  371
 221,  341,  342,  372
 222,  342,  373,  372
 223,  342,  343,  373
 224,  343,  374,  373
 225,  343,  344,  374
 226,  344,  375,  374
 227,  344,  345,  375
 228,  345,  376,  375
 229,  345,  346,  376
 230,  346,  377,  376
 231,  346,  347,  377
 232,  347,  378,  377
 233,  347,  348,  378
 234,  348,  379,  378
 235,  348,  349,  379
 236,  349,  380,  379
 237,  349,  350,  380
 238,  350,  381,  380
 239,  350,  351,  381
 240,  351,  382,  381
 241,  351,  352,  382
 242,  352,  383,  382
 243,  352,  353,  383
 244,  353,  384,  383
 245,  353,  354,  384
 246,  354,  385,  384
 247,  354,  355,  385
 248,  355,  386,  385
 249,  355,  356,  386
 250,  356,  387,  386
 251,  356,  357,  387
 252,  357,  388,  387
 253,  357,  358,  388
 254,  358,  389,  388
 255,  358,   42,  389
 256,   42,   43,  389
 257,  135,  359,  134
 258,  359,  390,  134
 259,  359,  360,  390
 260,  360,  391,  390
 261,  360,  361,  391
 262,  361,  392,  391
 263,  361,  362,  392
 264,  362,  393,  392
 265,  362,  363,  393
 266,  363,  394,  393
 267,  363,  364,  394
 268,  364,  395,  394
 269,  364,  365,  395
 270,  365,  396,  395
 271,  365,  366,  396
 272,  366,  397,  396
 273,  366,  367,  397
 274,  367,  398,  397
 275,  367,  368,  398
 276,  368,  399,  398
 277,  368,  369,  399
 278,  369,  400,  399
 279,  369,  370,  400
 280,  370,  401,  400
 281,  370,  371,  401
 282,  371,  402,  401
 283,  371,  372,  402
 284,  372,  403,  402
 285,  372,  373,  403
 286,  373,  404,  403
 287,  373,  374,  404
 288,  374,  405,  404
 289,  374,  375,  405
 290,  375,  406,  405
 291,  375,  376,  406
 292,  376,  407,  406
 293,  376,  377,  407
 294,  377,  408,  407
 295,  377,  378,  408
 296,  378,  409,  408
 297,  378,  379,  409
 298,  379,  410,  409
 299,  379,  380,  410
 300,  380,  411,  410
 301,  380,  381,  411
 302,  381,  412,  411
 303,  381,  382,  412
 304,  382,  413,  412
 305,  382,  383,  413
 306,  383,  414,  413
 307,  383,  384,  414
 308,  384,  415,  414
 309,  384,  385,  415
 310,  385,  416,  415
 311,  385,  386,  416
 312,  386,  417,  416
 313,  386,  387,  417
 314,  387,  418,  417
 315,  387,  388,  418
 316,  388,  419,  418
 317,  388,  389,  419
 318,  389,  420,  419
 319,  389,   43,  420
 320,   43,   44,  420
 321,  134,  390,  133
 322,  390,  421,  133
 323,  390,  391,  421
 324,  391,  422,  421
 325,  391,  392,  422
 326,  392,  423,  422
 327,  392,  393,  423
 328,  393,  424,  423
 329,  393,  394,  424
 330,  394,  425,  424
 331,  394,  395,  425
 332,  395,  426,  425
 333,  395,  396,  426
 334,  396,  427,  426
 335,  396,  397,  427
 336,  397,  428,  427
 337,  397,  398,  428
 338,  398,  429,  428
 339,  398,  399,  429
 340,  399,  430,  429
 341,  399,  400,  430
 342,  400,  431,  430
 343,  400,  401,  431
 344,  401,  432,  431
 345,  401,  402,  432
 346,  402,  433,  432
 347,  402,  403,  433
 348,  403,  434,  433
 349,  403,  404,  434
 350,  404,  435,  434
 351,  404,  405,  435
 352,  405,  436,  435
 353,  405,  406,  436
 354,  406,  437,  436
 355,  406,  407,  437
 356,  407,  438,  437
 357,  407,  408,  438
 358,  408,  439,  438
 359,  408,  409,  439
 360,  409,  440,  439
 361,  409,  410,  440
 362,  410,  441,  440
 363,  410,  411,  441
 364,  411,  442,  441
 365,  411,  412,  442
 366,  412,  443,  442
 367,  412,  413,  443
 368,  413,  444,  443
 369,  413,  414,  444
 370,  414,  445,  444
 371,  414,  415,  445
 372,  415,  446,  445
 373,  415,  416,  446
 374,  416,  447,  446
 375,  416,  417,  447
 376,  417,  448,  447
 377,  417,  418,  448
 378,  418,  449,  448
 379,  418,  419,  449
 380,  419,  450,  449
 381,  419,  420,  450
 382,  420,  451,  450
 383,  420,   44,  451
 384,   44,   45,  451
 385,  133,  421,  132
 386,  421,  452,  132
 387,  421,  422,  452
 388,  422,  453,  452
 389,  422,  423,  453
 390,  423,  454,  453
 391,  423,  424,  454
 392,  424,  455,  454
 393,  424,  425,  455
 394,  425,  456,  455
 395,  425,  426,  456
 396,  426,  457,  456
 397,  426,  427,  457
 398,  427,  458,  457
 399,  427,  428,  458
 400,  428,  459,  458
 401,  428,  429,  459
 402,  429,  460,  459
 403,  429,  430,  460
 404,  430,  461,  460
 405,  430,  431,  461
 406,  431,  462,  461
 407,  431,  432,  462
 408,  432,  463,  462
 409,  432,  433,  463
 410,  433,  464,  463
 411,  433,  434,  464
 412,  434,  465,  464
 413,  434,  435,  465
 414,  435,  466,  465
 415,  435,  436,  466
 416,  436,  467,  466
 417,  436,  437,  467
 418,  437,  468,  467
 419,  437,  438,  468
 420,  438,  469,  468
 421,  438,  439,  469
 422,  439,  470,  469
 423,  439,  440,  470
 424,  440,  471,  470
 425,  440,  441,  471
 426,  441,  472,  471
 427,  441,  442,  472
 428,  442,  473,  472
 429,  442,  443,  473
 430,  443,  474,  473
 431,  443,  444,  474
 432,  444,  475,  474
 433,  444,  445,  475
 434,  445,  476,  475
 435,  445,  446,  476
 436,  446,  477,  476
 437,  446,  447,  477
 438,  447,  478,  477
 439,  447,  448,  478
 440,  448,  479,  478
 441,  448,  449,  479
 442,  449,  480,  479
 443,  449,  450,  480
 444,  450,  481,  480
 445,  450,  451,  481
 446,  451,  482,  481
 447,  451,   45,  482
 448,   45,   46,  482
 449,  132,  452,  131
 450,  452,  483,  131
 451,  452,  453,  483
 452,  453,  484,  483
 453,  453,  454,  484
 454,  454,  485,  484
 455,  454,  455,  485
 456,  455,  486,  485
 457,  455,  456,  486
 458,  456,  487,  486
 459,  456,  457,  487
 460,  457,  488,  487
 461,  457,  458,  488
 462,  458,  489,  488
 463,  458,  459,  489
 464,  459,  490,  489
 465,  459,  460,  490
 466,  460,  491,  490
 467,  460,  461,  491
 468,  461,  492,  491
 469,  461,  462,  492
 470,  462,  493,  492
 471,  462,  463,  493
 472,  463,  494,  493
 473,  463,  464,  494
 474,  464,  495,  494
 475,  464,  465,  495
 476,  465,  496,  495
 477,  465,  466,  496
 478,  466,  497,  496
 479,  466,  467,  497
 480,  467,  498,  497
 481,  467,  468,  498
 482,  468,  499,  498
 483,  468,  469,  499
 484,  469,  500,  499
 485,  469,  470,  500
 486,  470,  501,  500
 487,  470,  471,  501
 488,  471,  502,  501
 489,  471,  472,  502
 490,  472,  503,  502
 491,  472,  473,  503
 492,  473,  504,  503
 493,  473,  474,  504
 494,  474,  505,  504
 495,  474,  475,  505
 496,  475,  506,  505
 497,  475,  476,  506
 498,  476,  507,  506
 499,  476,  477,  507
 500,  477,  508,  507
 501,  477,  478,  508
 502,  478,  509,  508
 503,  478,  479,  509
 504,  479,  510,  509
 505,  479,  480,  510
 506,  480,  511,  510
 507,  480,  481,  511
 508,  481,  512,  511
 509,  481,  482,  512
 510,  482,  513,  512
 511,  482,   46,  513
 512,   46,   47,  513
 513,  131,  483,  130
 514,  483,  514,  130
 515,  483,  484,  514
 516,  484,  515,  514
 517,  484,  485,  515
 518,  485,  516,  515
 519,  485,  486,  516
 520,  486,  517,  516
 521,  486,  487,  517
 522,  487,  518,  517
 523,  487,  488,  518
 524,  488,  519,  518
 525,  488,  489,  519
 526,  489,  520,  519
 527,  489,  490,  520
 528,  490,  521,  520
 529,  490,  491,  521
 530,  491,  522,  521
 531,  491,  492,  522
 532,  492,  523,  522
 533,  492,  493,  523
 534,  493,  524,  523
 535,  493,  494,  524
 536,  494,  525,  524
 537,  494,  495,  525
 538,  495,  526,  525
 539,  495,  496,  526
 540,  496,  527,  526
 541,  496,  497,  527
 542,  497,  528,  527
 543,  497,  498,  528
 544,  498,  529,  528
 545,  498,  499,  529
 546,  499,  530,  529
 547,  499,  500,  530
 548,  500,  531,  530
 549,  500,  501,  531
 550,  501,  532,  531
 551,  501,  502,  532
 552,  502,  533,  532
 553,  502,  503,  533
 554,  503,  534,  533
 555,  503,  504,  534
 556,  504,  535,  534
 557,  504,  505,  535
 558,  505,  536,  535
 559,  505,  506,  536
 560,  506,  537,  536
 561,  506,  507,  537
 562,  507,  538,  537
 563,  507,  508,  538
 564,  508,  539,  538
 565,  508,  509,  539
 566,  509,  540,  539
 567,  509,  510,  540
 568,  510,  541,  540
 569,  510,  511,  541
 570,  511,  542,  541
 571,  511,  512,  542
 572,  512,  543,  542
 573,  512,  513,  543
 574,  513,  544,  543
 575,  513,   47,  544
 576,   47,   48,  544
 577,  130,  514,  129
 578,  514,  545,  129
 579,  514,  515,  545
 580,  515,  546,  545
 581,  515,  516,  546
 582,  516,  547,  546
 583,  516,  517,  547
 584,  517,  548,  547
 585,  517,  518,  548
 586,  518,  549,  548
 587,  518,  519,  549
 588,  519,  550,  549
 589,  519,  520,  550
 590,  520,  551,  550
 591,  520,  521,  551
 592,  521,  552,  551
 593,  521,  522,  552
 594,  522,  553,  552
 595,  522,  523,  553
 596,  523,  554,  553
 597,  523,  524,  554
 598,  524,  555,  554
 599,  524,  525,  555
 600,  525,  556,  555
 601,  525,  526,  556
 602,  526,  557,  556
 603,  526,  527,  557
 604,  527,  558,  557
 605,  527,  528,  558
 606,  528,  559,  558
 607,  528,  529,  559
 608,  529,  560,  559
 609,  529,  530,  560
 610,  530,  561,  560
 611,  530,  531,  561
 612,  531,  562,  561
 613,  531,  532,  562
 614,  532,  563,  562
 615,  532,  533,  563
 616,  533,  564,  563
 617,  533,  534,  564
 618,  534,  565,  564
 619,  534,  535,  565
 620,  535,  566,  565
 621,  535,  536,  566
 622,  536,  567,  566
 623,  536,  537,  567
 624,  537,  568,  567
 625,  537,  538,  568
 626,  538,  569,  568
 627,  538,  539,  569
 628,  539,  570,  569
 629,  539,  540,  570
 630,  540,  571,  570
 631,  540,  541,  571
 632,  541,  572,  571
 633,  541,  542,  572
 634,  542,  573,  572
 635,  542,  543,  573
 636,  543,  574,  573
 637,  543,  544,  574
 638,  544,  575,  574
 639,  544,   48,  575
 640,   48,   49,  575
 641,  129,  545,  128
 642,  545,  576,  128
 643,  545,  546,  576
 644,  546,  577,  576
 645,  546,  547,  577
 646,  547,  578,  577
 647,  547,  548,  578
 648,  548,  579,  578
 649,  548,  549,  579
 650,  549,  580,  579
 651,  549,  550,  580
 652,  550,  581,  580
 653,  550,  551,  581
 654,  551,  582,  581
 655,  551,  552,  582
 656,  552,  583,  582
 657,  552,  553,  583
 658,  553,  584,  583
 659,  553,  554,  584
 660,  554,  585,  584
 661,  554,  555,  585
 662,  555,  586,  585
 663,  555,  556,  586
 664,  556,  587,  586
 665,  556,  557,  587
 666,  557,  588,  587
 667,  557,  558,  588
 668,  558,  589,  588
 669,  558,  559,  589
 670,  559,  590,  589
 671,  559,  560,  590
 672,  560,  591,  590
 673,  560,  561,  591
 674,  561,  592,  591
 675,  561,  562,  592
 676,  562,  593,  592
 677,  562,  563,  593
 678,  563,  594,  593
 679,  563,  564,  594
 680,  564,  595,  594
 681,  564,  565,  595
 682,  565,  596,  595
 683,  565,  566,  596
 684,  566,  597,  596
 685,  566,  567,  597
 686,  567,  598,  597
 687,  567,  568,  598
 688,  568,  599,  598
 689,  568,  569,  599
 690,  569,  600,  599
 691,  569,  570,  600
 692,  570,  601,  600
 693,  570,  571,  601
 694,  571,  602,  601
 695,  571,  572,  602
 696,  572,  603,  602
 697,  572,  573,  603
 698,  573,  604,  603
 699,  573,  574,  604
 700,  574,  605,  604
 701,  574,  575,  605
 702,  575,  606,  605
 703,  575,   49,  606
 704,   49,   50,  606
 705,  128,  576,  127
 706,  576,  607,  127
 707,  576,  577,  607
 708,  577,  608,  607
 709,  577,  578,  608
 710,  578,  609,  608
 711,  578,  579,  609
 712,  579,  610,  609
 713,  579,  580,  610
 714,  580,  611,  610
 715,  580,  581,  611
 716,  581,  612,  611
 717,  581,  582,  612
 718,  582,  613,  612
 719,  582,  583,  613
 720,  583,  614,  613
 721,  583,  584,  614
 722,  584,  615,  614
 723,  584,  585,  615
 724,  585,  616,  615
 725,  585,  586,  616
 726,  586,  617,  616
 727,  586,  587,  617
 728,  587,  618,  617
 729,  587,  588,  618
 730,  588,  619,  618
 731,  588,  589,  619
 732,  589,  620,  619
 733,  589,  590,  620
 734,  590,  621,  620
 735,  590,  591,  621
 736,  591,  622,  621
 737,  591,  592,  622
 738,  592,  623,  622
 739,  592,  593,  623
 740,  593,  624,  623
 741,  593,  594,  624
 742,  594,  625,  624
 743,  594,  595,  625
 744,  595,  626,  625
 745,  595,  596,  626
 746,  596,  627,  626
 747,  596,  597,  627
 748,  597,  628,  627
 749,  597,  598,  628
 750,  598,  629,  628
 751,  598,  599,  629
 752,  599,  630,  629
 753,  599,  600,  630
 754,  600,  631,  630
 755,  600,  601,  631
 756,  601,  632,  631
 757,  601,  602,  632
 758,  602,  633,  632
 759,  602,  603,  633
 760,  603,  634,  633
 761,  603,  604,  634
 762,  604,  635,  634
 763,  604,  605,  635
 764,  605,  636,  635
 765,  605,  606,  636
 766,  606,  637,  636
 767,  606,   50,  637
 768,   50,   51,  637
 769,  127,  607,  126
 770,  607,  638,  126
 771,  607,  608,  638
 772,  608,  639,  638
 773,  608,  609,  639
 774,  609,  640,  639
 775,  609,  610,  640
 776,  610,  641,  640
 777,  610,  611,  641
 778,  611,  642,  641
 779,  611,  612,  642
 780,  612,  643,  642
 781,  612,  613,  643
 782,  613,  644,  643
 783,  613,  614,  644
 784,  614,  645,  644
 785,  614,  615,  645
 786,  615,  646,  645
 787,  615,  616,  646
 788,  616,  647,  646
 789,  616,  617,  647
 790,  617,  648,  647
 791,  617,  618,  648
 792,  618,  649,  648
 793,  618,  619,  649
 794,  619,  650,  649
 795,  619,  620,  650
 796,  620,  651,  650
 797,  620,  621,  651
 798,  621,  652,  651
 799,  621,  622,  652
 800,  622,  653,  652
 801,  622,  623,  653
 802,  623,  654,  653
 803,  623,  624,  654
 804,  624,  655,  654
 805,  624,  625,  655
 806,  625,  656,  655
 807,  625,  626,  656
 808,  626,  657,  656
 809,  626,  627,  657
 810,  627,  658,  657
 811,  627,  628,  658
 812,  628,  659,  658
 813,  628,  629,  659
 814,  629,  660,  659
 815,  629,  630,  660
 816,  630,  661,  660
 817,  630,  631,  661
 818,  631,  662,  661
 819,  631,  632,  662
 820,  632,  663,  662
 821,  632,  633,  663
 822,  633,  664,  663
 823,  633,  634,  664
 824,  634,  665,  664
 825,  634,  635,  665
 826,  635,  666,  665
 827,  635,  636,  666
 828,  636,  667,  666
 829,  636,  637,  667
 830,  637,  668,  667
 831,  637,   51,  668
 832,   51,   52,  668
 833,  126,  638,  125
 834,  638,  669,  125
 835,  638,  639,  669
 836,  639,  670,  669
 837,  639,  640,  670
 838,  640,  671,  670
 839,  640,  641,  671
 840,  641,  672,  671
 841,  641,  642,  672
 842,  642,  673,  672
 843,  642,  643,  673
 844,  643,  674,  673
 845,  643,  644,  674
 846,  644,  675,  674
 847,  644,  645,  675
 848,  645,  676,  675
 849,  645,  646,  676
 850,  646,  677,  676
 851,  646,  647,  677
 852,  647,  678,  677
 853,  647,  648,  678
 854,  648,  679,  678
 855,  648,  649,  679
 856,  649,  680,  679
 857,  649,  650,  680
 858,  650,  681,  680
 859,  650,  651,  681
 860,  651,  682,  681
 861,  651,  652,  682
 862,  652,  683,  682
 863,  652,  653,  683
 864,  653,  684,  683
 865,  653,  654,  684
 866,  654,  685,  684
 867,  654,  655,  685
 868,  655,  686,  685
 869,  655,  656,  686
 870,  656,  687,  686
 871,  656,  657,  687
 872,  657,  688,  687
 873,  657,  658,  688
 874,  658,  689,  688
 875,  658,  659,  689
 876,  659,  690,  689
 877,  659,  660,  690
 878,  660,  691,  690
 879,  660,  661,  691
 880,  661,  692,  691
 881,  661,  662,  692
 882,  662,  693,  692
 883,  662,  663,  693
 884,  663,  694,  693
 885,  663,  664,  694
 886,  664,  695,  694
 887,  664,  665,  695
 888,  665,  696,  695
 889,  665,  666,  696
 890,  666,  697,  696
 891,  666,  667,  697
 892,  667,  698,  697
 893,  667,  668,  698
 894,  668,  699,  698
 895,  668,   52,  699
 896,   52,   53,  699
 897,  125,  669,  124
 898,  669,  700,  124
 899,  669,  670,  700
 900,  670,  701,  700
 901,  670,  671,  701
 902,  671,  702,  701
 903,  671,  672,  702
 904,  672,  703,  702
 905,  672,  673,  703
 906,  673,  704,  703
 907,  673,  674,  704
 908,  674,  705,  704
 909,  674,  675,  705
 910,  675,  706,  705
 911,  675,  676,  706
 912,  676,  707,  706
 913,  676,  677,  707
 914,  677,  708,  707
 915,  677,  678,  708
 916,  678,  709,  708
 917,  678,  679,  709
 918,  679,  710,  709
 919,  679,  680,  710
 920,  680,  711,  710
 921,  680,  681,  711
 922,  681,  712,  711
 923,  681,  682,  712
 924,  682,  713,  712
 925,  682,  683,  713
 926,  683,  714,  713
 927,  683,  684,  714
 928,  684,  715,  714
 929,  684,  685,  715
 930,  685,  716,  715
 931,  685,  686,  716
 932,  686,  717,  716
 933,  686,  687,  717
 934,  687,  718,  717
 935,  687,  688,  718
 936,  688,  719,  718
 937,  688,  689,  719
 938,  689,  720,  719
 939,  689,  690,  720
 940,  690,  721,  720
 941,  690,  691,  721
 942,  691,  722,  721
 943,  691,  692,  722
 944,  692,  723,  722
 945,  692,  693,  723
 946,  693,  724,  723
 947,  693,  694,  724
 948,  694,  725,  724
 949,  694,  695,  725
 950,  695,  726,  725
 951,  695,  696,  726
 952,  696,  727,  726
 953,  696,  697,  727
 954,  697,  728,  727
 955,  697,  698,  728
 956,  698,  729,  728
 957,  698,  699,  729
 958,  699,  730,  729
 959,  699,   53,  730
 960,   53,   54,  730
 961,  124,  700,  123
 962,  700,  731,  123
 963,  700,  701,  731
 964,  701,  732,  731
 965,  701,  702,  732
 966,  702,  733,  732
 967,  702,  703,  733
 968,  703,  734,  733
 969,  703,  704,  734
 970,  704,  735,  734
 971,  704,  705,  735
 972,  705,  736,  735
 973,  705,  706,  736
 974,  706,  737,  736
 975,  706,  707,  737
 976,  707,  738,  737
 977,  707,  708,  738
 978,  708,  739,  738
 979,  708,  709,  739
 980,  709,  740,  739
 981,  709,  710,  740
 982,  710,  741,  740
 983,  710,  711,  741
 984,  711,  742,  741
 985,  711,  712,  742
 986,  712,  743,  742
 987,  712,  713,  743
 988,  713,  744,  743
 989,  713,  714,  744
 990,  714,  745,  744
 991,  714,  715,  745
 992,  715,  746,  745
 993,  715,  716,  746
 994,  716,  747,  746
 995,  716,  717,  747
 996,  717,  748,  747
 997,  717,  718,  748
 998,  718,  749,  748
 999,  718,  719,  749
1000,  719,  750,  749
1001,  719,  720,  750
1002,  720,  751,  750
1003,  720,  721,  751
1004,  721,  752,  751
1005,  721,  722,  752
1006,  722,  753,  752
1007,  722,  723,  753
1008,  723,  754,  753
1009,  723,  724,  754
1010,  724,  755,  754
1011,  724,  725,  755
1012,  725,  756,  755
1013,  725,  726,  756
1014,  726,  757,  756
1015,  726,  727,  757
1016,  727,  758,  757
1017,  727,  728,  758
1018,  728,  759,  758
1019,  728,  729,  759
1020,  729,  760,  759
1021,  729,  730,  760
1022,  730,  761,  760
1023,  730,   54,  761
1024,   54,   55,  761
1025,  123,  731,  122
1026,  731,  762,  122
1027,  731,  732,  762
1028,  732,  763,  762
1029,  732,  733,  763
1030,  733,  764,  763
1031,  733,  734,  764
1032,  734,  765,  764
1033,  734,  735,  765
1034,  735,  766,  765
1035,  735,  736,  766
1036,  736,  767,  766
1037,  736,  737,  767
1038,  737,  768,  767
1039,  737,  738,  768
1040,  738,  769,  768
1041,  738,  739,  769
1042,  739,  770,  769
1043,  739,  740,  770
1044,  740,  771,  770
1045,  740,  741,  771
1046,  741,  772,  771
1047,  741,  742,  772
1048,  742,  773,  772
1049,  742,  743,  773
1050,  743,  774,  773
1051,  743,  744,  774
1052,  744,  775,  774
1053,  744,  745,  775
1054,  745,  776,  775
1055,  745,  746,  776
1056,  746,  777,  776
1057,  746,  747,  777
1058,  747,  778,  777
1059,  747,  748,  778
1060,  748,  779,  778
1061,  748,  749,  779
1062,  749,  780,  779
1063,  749,  750,  780
1064,  750,  781,  780
1065,  750,  751,  781
1066,  751,  782,  781
1067,  751,  752,  782
1068,  752,  783,  782
1069,  752,  753,  783
1070,  753,  784,  783
1071,  753,  754,  784
1072,  754,  785,  784
1073,  754,  755,  785
1074,  755,  786,  785
1075,  755,  756,  786
1076,  756,  787,  786
1077,  756,  757,  787
1078,  757,  788,  787
1079,  757,  758,  788
1080,  758,  789,  788
1081,  758,  759,  789
1082,  759,  790,  789
1083,  759,  760,  790
1084,  760,  791,  790
1085,  760,  761,  791
1086,  761,  792,  791
1087,  761,   55,  792
1088,   55,   56,  792
1089,  122,  762,  121
1090,  762,  793,  121
1091,  762,  763,  793
1092,  763,  794,  793
1093,  763,  764,  794
1094,  764,  795,  794
1095,  764,  765,  795
1096,  765,  796,  795
1097,  765,  766,  796
1098,  766,  797,  796
1099,  766,  767,  797
1100,  767,  798,  797
1101,  767,  768,  798
1102,  768,  799,  798
1103,  768,  769,  799
1104,  769,  800,  799
1105,  769,  770,  800
1106,  770,  801,  800
1107,  770,  771,  801
1108,  771,  802,  801
1109,  771,  772,  802
1110,  772,  803,  802
1111,  772,  773,  803
1112,  773,  804,  803
1113,  773,  774,  804
1114,  774,  805,  804
1115,  774,  775,  805
1116,  775,  806,  805
1117,  775,  776,  806
1118,  776,  807,  806
1119,  776,  777,  807
1120,  777,  808,  807
1121,  777,  778,  808
1122,  778,  809,  808
1123,  778,  779,  809
1124,  779,  810,  809
1125,  779,  780,  810
1126,  780,  811,  810
1127,  780,  781,  811
1128,  781,  812,  811
1129,  781,  782,  812
1130,  782,  813,  812
1131,  782,  783,  813
1132,  783,  814,  813
1133,  783,  784,  814
1134,  784,  815,  814
1135,  784,  785,  815
1136,  785,  816,  815
1137,  785,  786,  816
1138,  786,  817,  816
1139,  786,  787,  817
1140,  787,  818,  817
1141,  787,  788,  818
1142,  788,  819,  818
1143,  788,  789,  819
1144,  789,  820,  819
1145,  789,  790,  820
1146,  790,  821,  820
1147,  790,  791,  821
1148,  791,  822,  821
1149,  791,  792,  822
1150,  792,  823,  822
1151,  792,   56,  823
1152,   56,   57,  823
1153,  121,  793,  120
1154,  793,  824,  120
1155,  793,  794,  824
1156,  794,  825,  824
1157,  794,  795,  825
1158,  795,  826,  825
1159,  795,  796,  826
1160,  796,  827,  826
1161,  796,  797,  827
1162,  797,  828,  827
1163,  797,  798,  828
1164,  798,  829,  828
1165,  798,  799,  829
1166,  799,  830,  829
1167,  799,  800,  830
1168,  800,  831,  830
1169,  800,  801,  831
1170,  801,  832,  831
1171,  801,  802,  832
1172,  802,  833,  832
1173,  802,  803,  833
1174,  803,  834,  833
1175,  803,  804,  834
1176,  804,  835,  834
1177,  804,  805,  835
1178,  805,  836,  835
1179,  805,  806,  836
1180,  806,  837,  836
1181,  806,  807,  837
1182,  807,  838,  837
1183,  807,  808,  838
1184,  808,  839,  838
1185,  808,  809,  839
1186,  809,  840,  839
1187,  809,  810,  840
1188,  810,  841,  840
1189,  810,  811,  841
1190,  811,  842,  841
1191,  811,  812,  842
1192,  812,  843,  842
1193,  812,  813,  843
1194,  813,  844,  843
1195,  813,  814,  844
1196,  814,  845,  844
1197,  814,  815,  845
1198,  815,  846,  845
1199,  815,  816,  846
1200,  816,  847,  846
1201,  816,  817,  847
1202,  817,  848,  847
1203,  817,  818,  848
1204,  818,  849,  848
1205,  818,  819,  849
1206,  819,  850,  849
1207,  819,  820,  850
1208,  820,  851,  850
1209,  820,  821,  851
1210,  821,  852,  851
1211,  821,  822,  852
1212,  822,  853,  852
1213,  822,  823,  853
1214,  823,  854,  853
1215,  823,   57,  854
1216,   57,   58,  854
1217,  120,  824,  119
1218,  824,  855,  119
1219,  824,  825,  855
1220,  825,  856,  855
1221,  825,  826,  856
1222,  826,  857,  856
1223,  826,  827,  857
1224,  827,  858,  857
1225,  827,  828,  858
1226,  828,  859,  858
1227,  828,  829,  859
1228,  829,  860,  859
1229,  829,  830,  860
1230,  830,  861,  860
1231,  830,  831,  861
1232,  831,  862,  861
1233,  831,  832,  862
1234,  832,  863,  862
1235,  832,  833,  863
1236,  833,  864,  863
1237,  833,  834,  864
1238,  834,  865,  864
1239,  834,  835,  865
1240,  835,  866,  865
1241,  835,  836,  866
1242,  836,  867,  866
1243,  836,  837,  867
1244,  837,  868,  867
1245,  837,  838,  868
1246,  838,  869,  868
1247,  838,  839,  869
1248,  839,  870,  869
1249,  839,  840,  870
1250,  840,  871,  870
1251,  840,  841,  871
1252,  841,  872,  871
1253,  841,  842,  872
1254,  842,  873,  872
1255,  842,  843,  873
1256,  843,  874,  873
1257,  843,  844,  874
1258,  844,  875,  874
1259,  844,  845,  875
1260,  845,  876,  875
1261,  845,  846,  876
1262,  846,  877,  876
1263,  846,  847,  877
1264,  847,  878,  877
1265,  847,  848,  878
1266,  848,  879,  878
1267,  848,  849,  879
1268,  849,  880,  879
1269,  849,  850,  880
1270,  850,  881,  880
1271,  850,  851,  881
1272,  851,  882,  881
1273,  851,  852,  882
1274,  852,  883,  882
1275,  852,  853,  883
1276,  853,  884,  883
1277,  853,  854,  884
1278,  854,  885,  884
1279,  854,   58,  885
1280,   58,   59,  885
1281,  119,  855,  118
1282,  855,  886,  118
1283,  855,  856,  886
1284,  856,  887,  886
1285,  856,  857,  887
1286,  857,  888,  887
1287,  857,  858,  888
1288,  858,  889,  888
1289,  858,  859,  889
1290,  859,  890,  889
1291,  859,  860,  890
1292,  860,  891,  890
1293,  860,  861,  891
1294,  861,  892,  891
1295,  861,  862,  892
1296,  862,  893,  892
1297,  862,  863,  893
1298,  863,  894,  893
1299,  863,  864,  894
1300,  864,  895,  894
1301,  864,  865,  895
1302,  865,  896,  895
1303,  865,  866,  896
1304,  866,  897,  896
1305,  866,  867,  897
1306,  867,  898,  897
1307,  867,  868,  898
1308,  868,  899,  898
1309,  868,  869,  899
1310,  869,  900,  899
1311,  869,  870,  900
1312,  870,  901,  900
1313,  870,  871,  901
1314,  871,  902,  901
1315,  871,  872,  902
1316,  872,  903,  902
1317,  872,  873,  903
1318,  873,  904,  903
1319,  873,  874,  904
1320,  874,  905,  904
1321,  874,  875,  905
1322,  875,  906,  905
1323,  875,  876,  906
1324,  876,  907,  906
1325,  876,  877,  907
1326,  877,  908,  907
1327,  877,  878,  908
1328,  878,  909,  908
1329,  878,  879,  909
1330,  879,  910,  909
1331,  879,  880,  910
1332,  880,  911,  910
1333,  880,  881,  911
1334,  881,  912,  911
1335,  881,  882,  912
1336,  882,  913,  912
1337,  882,  883,  913
1338,  883,  914,  913
1339,  883,  884,  914
1340,  884,  915,  914
1341,  884,  885,  915
1342,  885,  916,  915
1343,  885,   59,  916
1344,   59,   60,  916
1345,  118,  886,  117
1346,  886,  917,  117
1347,  886,  887,  917
1348,  887,  918,  917
1349,  887,  888,  918
1350,  888,  919,  918
1351,  888,  889,  919
1352,  889,  920,  919
1353,  889,  890,  920
1354,  890,  921,  920
1355,  890,  891,  921
1356,  891,  922,  921
1357,  891,  892,  922
1358,  892,  923,  922
1359,  892,  893,  923
1360,  893,  924,  923
1361,  893,  894,  924
1362,  894,  925,  924
1363,  894,  895,  925
1364,  895,  926,  925
1365,  895,  896,  926
1366,  896,  927,  926
1367,  896,  897,  927
1368,  897,  928,  927
1369,  897,  898,  928
1370,  898,  929,  928
1371,  898,  899,  929
1372,  899,  930,  929
1373,  899,  900,  930
1374,  900,  931,  930
1375,  900,  901,  931
1376,  901,  932,  931
1377,  901,  902,  932
1378,  902,  933,  932
1379,  902,  903,  933
1380,  903,  934,  933
1381,  903,  904,  934
1382,  904,  935,  934
1383,  904,  905,  935
1384,  905,  936,  935
1385,  905,  906,  936
1386,  906,  937,  936
1387,  906,  907,  937
1388,  907,  938,  937
1389,  907,  908,  938
1390,  908,  939,  938
1391,  908,  909,  939
1392,  909,  940,  939
1393,  909,  910,  940
1394,  910,  941,  940
1395,  910,  911,  941
1396,  911,  942,  941
1397,  911,  912,  942
1398,  912,  943,  942
1399,  912,  913,  943
1400,  913,  944,  943
1401,  913,  914,  944
1402,  914,  945,  944
1403,  914,  915,  945
1404,  915,  946,  945
1405,  915,  916,  946
1406,  916,  947,  946
1407,  916,   60,  947
1408,   60,   61,  947
1409,  117,  917,  116
1410,  917,  948,  116
1411,  917,  918,  948
1412,  918,  949,  948
1413,  918,  919,  949
1414,  919,  950,  949
1415,  919,  920,  950
1416,  920,  951,  950
1417,  920,  921,  951
1418,  921,  952,  951
1419,  921,  922,  952
1420,  922,  953,  952
1421,  922,  923,  953
1422,  923,  954,  953
1423,  923,  924,  954
1424,  924,  955,  954
1425,  924,  925,  955
1426,  925,  956,  955
1427,  925,  926,  956
1428,  926,  957,  956
1429,  926,  927,  957
1430,  927,  958,  957
1431,  927,  928,  958
1432,  928,  959,  958
1433,  928,  929,  959
1434,  929,  960,  959
1435,  929,  930,  960
1436,  930,  961,  960
1437,  930,  931,  961
1438,  931,  962,  961
1439,  931,  932,  962
1440,  932,  963,  962
1441,  932,  933,  963
1442,  933,  964,  963
1443,  933,  934,  964
1444,  934,  965,  964
1445,  934,  935,  965
1446,  935,  966,  965
1447,  935,  936,  966
1448,  936,  967,  966
1449,  936,  937,  967
1450,  937,  968,  967
1451,  937,  938,  968
1452,  938,  969,  968
1453,  938,  939,  969
1454,  939,  970,  969
1455,  939,  940,  970
1456,  940,  971,  970
1457,  940,  941,  971
1458,  941,  972,  971
1459,  941,  942,  972
1460,  942,  973,  972
1461,  942,  943,  973
1462,  943,  974,  973
1463,  943,  944,  974
1464,  944,  975,  974
1465,  944,  945,  975
1466,  945,  976,  975
1467,  945,  946,  976
1468,  946,  977,  976
1469,  946,  947,  977
1470,  947,  978,  977
1471,  947,   61,  978
1472,   61,   62,  978
1473,  116,  948,  115
1474,  948,  979,  115
1475,  948,  949,  979
1476,  949,  980,  979
1477,  949,  950,  980
1478,  950,  981,  980
1479,  950,  951,  981
1480,  951,  982,  981
1481,  951,  952,  982
1482,  952,  983,  982
1483,  952,  953,  983
1484,  953,  984,  983
1485,  953,  954,  984
1486,  954,  985,  984
1487,  954,  955,  985
1488,  955,  986,  985
1489,  955,  956,  986
1490,  956,  987,  986
1491,  956,  957,  987
1492,  957,  988,  987
1493,  957,  958,  988
1494,  958,  989,  988
1495,  958,  959,  989
1496,  959,  990,  989
1497,  959,  960,  990
1498,  960,  991,  990
1499,  960,  961,  991
1500,  961,  992,  991
1501,  961,  962,  992
1502,  962,  993,  992
1503,  962,  963,  993
1504,  963,  994,  993
1505,  963,  964,  994
1506,  964,  995,  994
1507,  964,  965,  995
1508,  965,  996,  995
1509,  965,  966,  996
1510,  966,  997,  996
1511,  966,  967,  997
1512,  967,  998,  997
1513,  967,  968,  998
1514,  968,  999,  998
1515,  968,  969,  999
1516,  969, 1000,  999
1517,  969,  970, 1000
1518,  970, 1001, 1000
1519,  970,  971, 1001
1520,  971, 1002, 1001
1521,  971,  972, 1002
1522,  972, 1003, 1002
1523,  972,  973, 1003
1524,  973, 1004, 1003
1525,  973,  974, 1004
1526,  974, 1005, 1004
1527,  974,  975, 1005
1528,  975, 1006, 1005
1529,  975,  976, 1006
1530,  976, 1007, 1006
1531,  976,  977, 1007
1532,  977, 1008, 1007
1533,  977,  978, 1008
1534,  978, 1009, 1008
1535,  978,   62, 1009
1536,   62,   63, 1009
1537,  115,  979,  114
1538,  979, 1010,  114
1539,  979,  980, 1010
1540,  980, 1011, 1010
1541,  980,  981, 1011
1542,  981, 1012, 1011
1543,  981,  982, 1012
1544,  982, 1013, 1012
1545,  982,  983, 1013
1546,  983, 1014, 1013
1547,  983,  984, 1014
1548,  984, 1015, 1014
1549,  984,  985, 1015
1550,  985, 1016, 1015
1551,  985,  986, 1016
1552,  986, 1017, 1016
1553,  986,  987, 1017
1554,  987, 1018, 1017
1555,  987,  988, 1018
1556,  988, 1019, 1018
1557,  988,  989, 1019
1558,  989, 1020, 1019
1559,  989,  990, 1020
1560,  990, 1021, 1020
1561,  990,  991, 1021
1562,  991, 1022, 1021
1563,  991,  992, 1022
1564,  992, 1023, 1022
1565,  992,  993, 1023
1566,  993, 1024, 1023
1567,  993,  994, 1024
1568,  994, 1025, 1024
1569,  994,  995, 1025
1570,  995, 1026, 1025
1571,  995,  996, 1026
1572,  996, 1027, 1026
1573,  996,  997, 1027
1574,  997, 1028, 1027
1575,  997,  998, 1028
1576,  998, 1029, 1028
1577,  998,  999, 1029
1578,  999, 1030, 1029
1579,  999, 1000, 1030
1580, 1000, 1031, 1030
1581, 1000, 1001, 1031
1582, 1001, 1032, 1031
1583, 1001, 1002, 1032
1584, 1002, 1033, 1032
1585, 1002, 1003, 1033
1586, 1003, 1034, 1033
1587, 1003, 1004, 1034
1588, 1004, 1035, 1034
1589, 1004, 1005, 1035
1590, 1005, 1036, 1035
1591, 1005, 1006, 1036
1592, 1006, 1037, 1036
1593, 1006, 1007, 1037
1594, 1007, 1038, 1037
1595, 1007, 1008, 1038
1596, 1008, 1039, 1038
1597, 1008, 1009, 1039
1598, 1009, 1040, 1039
1599, 1009,   63, 1040
1600,   63,   64, 1040
1601,  114, 1010,  113
1602, 1010, 1041,  113
1603, 1010, 1011, 1041
1604, 1011, 1042, 1041
1605, 1011, 1012, 1042
1606, 1012, 1043, 1042
1607, 1012, 1013, 1043
1608, 1013, 1044, 1043
1609, 1013, 1014, 1044
1610, 1014, 1045, 1044
1611, 1014, 1015, 1045
1612, 1015, 1046, 1045
1613, 1015, 1016, 1046
1614, 1016, 1047, 1046
1615, 1016, 1017, 1047
1616, 1017, 1048, 1047
1617, 1017, 1018, 1048
1618, 1018, 1049, 1048
1619, 1018, 1019, 1049
1620, 1019, 1050, 1049
1621, 1019, 1020, 1050
1622, 1020, 1051, 1050
1623, 1020, 1021, 1051
1624, 1021, 1052, 1051
1625, 1021, 1022, 1052
1626, 1022, 1053, 1052
1627, 1022, 1023, 1053
1628, 1023, 1054, 1053
1629, 1023, 1024, 1054
1630, 1024, 1055, 1054
1631, 1024, 1025, 1055
1632, 1025, 1056, 1055
1633, 1025, 1026, 1056
1634, 1026, 1057, 1056
1635, 1026, 1027, 1057
1636, 1027, 1058, 1057
1637, 1027, 1028, 1058
1638, 1028, 1059, 1058
1639, 1028, 1029, 1059
1640, 1029, 1060, 1059
1641, 1029, 1030, 1060
1642, 1030, 1061, 1060
1643, 1030, 1031, 1061
1644, 1031, 1062, 1061
1645, 1031, 1032, 1062
1646, 1032, 1063, 1062
1647, 1032, 1033, 1063
1648, 1033, 1064, 1063
1649, 1033, 1034, 1064
1650, 1034, 1065, 1064
1651, 1034, 1035, 1065
1652, 1035, 1066, 1065
1653, 1035, 1036, 1066
1654, 1036, 1067, 1066
1655, 1036, 1037, 1067
1656, 1037, 1068, 1067
1657, 1037, 1038, 1068
1658, 1038, 1069, 1068
1659, 1038, 1039, 1069
1660, 1039, 1070, 1069
1661, 1039, 1040, 1070
1662, 1040, 1071, 1070
1663, 1040,   64, 1071
1664,   64,   65, 1071
1665,  113, 1041,  112
1666, 1041, 1072,  112
1667, 1041, 1042, 1072
1668, 1042, 1073, 1072
1669, 1042, 1043, 1073
1670, 1043, 1074, 1073
1671, 1043, 1044, 1074
1672, 1044, 1075, 1074
1673, 1044, 1045, 1075
1674, 1045, 1076, 1075
1675, 1045, 1046, 1076
1676, 1046, 1077, 1076
1677, 1046, 1047, 1077
1678, 1047, 1078, 1077
1679, 1047, 1048, 1078
1680, 1048, 1079, 1078
1681, 1048, 1049, 1079
1682, 1049, 1080, 1079
1683, 1049, 1050, 1080
1684, 1050, 1081, 1080
1685, 1050, 1051, 1081
1686, 1051, 1082, 1081
1687, 1051, 1052, 1082
1688, 1052, 1083, 1082
1689, 1052, 1053, 1083
1690, 1053, 1084, 1083
1691, 1053, 1054, 1084
1692, 1054, 1085, 1084
1693, 1054, 1055, 1085
1694, 1055, 1086, 1085
1695, 1055, 1056, 1086
1696, 1056, 1087, 1086
1697, 1056, 1057, 1087
1698, 1057, 1088, 1087
1699, 1057, 1058, 1088
1700, 1058, 1089, 1088
1701, 1058, 1059, 1089
1702, 1059, 1090, 1089
1703, 1059, 1060, 1090
1704, 1060, 1091, 1090
1705, 1060, 1061, 1091
1706, 1061, 1092, 1091
1707, 1061, 1062, 1092
1708, 1062, 1093, 1092
1709, 1062, 1063, 1093
1710, 1063, 1094, 1093
1711, 1063, 1064, 1094
1712, 1064, 1095, 1094
1713, 1064, 1065, 1095
1714, 1065, 1096, 1095
1715, 1065, 1066, 1096
1716, 1066, 1097, 1096
1717, 1066, 1067, 1097
1718, 1067, 1098, 1097
1719, 1067, 1068, 1098
1720, 1068, 1099, 1098
1721, 1068, 1069, 1099
1722, 1069, 1100, 1099
1723, 1069, 1070, 1100
1724, 1070, 1101, 1100
1725, 1070, 1071, 1101
1726, 1071, 1102, 1101
1727, 1071,   65, 1102
1728,   65,   66, 1102
1729,  112, 1072,  111
1730, 1072, 1103,  111
1731, 1072, 1073, 1103
1732, 1073, 1104, 1103
1733, 1073, 1074, 1104
1734, 1074, 1105, 1104
1735, 1074, 1075, 1105
1736, 1075, 1106, 1105
1737, 1075, 1076, 1106
1738, 1076, 1107, 1106
1739, 1076, 1077, 1107
1740, 1077, 1108, 1107
1741, 1077, 1078, 1108
1742, 1078, 1109, 1108
1743, 1078, 1079, 1109
1744, 1079, 1110, 1109
1745, 1079, 1080, 1110
1746, 1080, 1111, 1110
1747, 1080, 1081, 1111
1748, 1081, 1112, 1111
1749, 1081, 1082, 1112
1750, 1082, 1113, 1112
1751, 1082, 1083, 1113
1752, 1083, 1114, 1113
1753, 1083, 1084, 1114
1754, 1084, 1115, 1114
1755, 1084, 1085, 1115
1756, 1085, 1116, 1115
1757, 1085, 1086, 1116
1758, 1086, 1117, 1116
1759, 1086, 1087, 1117
1760, 1087, 1118, 1117
1761, 1087, 1088, 1118
1762, 1088, 1119, 1118
1763, 1088, 1089, 1119
1764, 1089, 1120, 1119
1765, 1089, 1090, 1120
1766, 1090, 1121, 1120
1767, 1090, 1091, 1121
1768, 1091, 1122, 1121
1769, 1091, 1092, 1122
1770, 1092, 1123, 1122
1771, 1092, 1093, 1123
1772, 1093, 1124, 1123
1773, 1093, 1094, 1124
1774, 1094, 1125, 1124
1775, 1094, 1095, 1125
1776, 1095, 1126, 1125
1777, 1095, 1096, 1126
1778, 1096, 1127, 1126
1779, 1096, 1097, 1127
1780, 1097, 1128, 1127
1781, 1097, 1098, 1128
1782, 1098, 1129, 1128
1783, 1098, 1099, 1129
1784, 1099, 1130, 1129
1785, 1099, 1100, 1130
1786, 1100, 1131, 1130
1787, 1100, 1101, 1131
1788, 1101, 1132, 1131
1789, 1101, 1102, 1132
1790, 1102, 1133, 1132
1791, 1102,   66, 1133
1792,   66,   67, 1133
1793,  111, 1103,  110
1794, 1103, 1134,  110
1795, 1103, 1104, 1134
1796, 1104, 1135, 1134
1797, 1104, 1105, 1135
1798, 1105, 1136, 1135
1799, 1105, 1106, 1136
1800, 1106, 1137, 1136
1801, 1106, 1107, 1137
1802, 1107, 1138, 1137
1803, 1107, 1108, 1138
1804, 1108, 1139, 1138
1805, 1108, 1109, 1139
1806, 1109, 1140, 1139
1807, 1109, 1110, 1140
1808, 1110, 1141, 1140
1809, 1110, 1111, 1141
1810, 1111, 1142, 1141
1811, 1111, 1112, 1142
1812, 1112, 1143, 1142
1813, 1112, 1113, 1143
1814, 1113, 1144, 1143
1815, 1113, 1114, 1144
1816, 1114, 1145, 1144
1817, 1114, 1115, 1145
1818, 1115, 1146, 1145
1819, 1115, 1116, 1146
1820, 1116, 1147, 1146
1821, 1116, 1117, 1147
1822, 1117, 1148, 1147
1823, 1117, 1118, 1148
1824, 1118, 1149, 1148
1825, 1118, 1119, 1149
1826, 1119, 1150, 1149
1827, 1119, 1120, 1150
1828, 1120, 1151, 1150
1829, 1120, 1121, 1151
1830, 1121, 1152, 1151
1831, 1121, 1122, 1152
1832, 1122, 1153, 1152
1833, 1122, 1123, 1153
1834, 1123, 1154, 1153
1835, 1123, 1124, 1154
1836, 1124, 1155, 1154
1837, 1124, 1125, 1155
1838, 1125, 1156, 1155
1839, 1125, 1126, 1156
1840, 1126, 1157, 1156
1841, 1126, 1127, 1157
1842, 1127, 1158, 1157
1843, 1127, 1128, 1158
1844, 1128, 1159, 1158
1845, 1128, 1129, 1159
1846, 1129, 1160, 1159
1847, 1129, 1130, 1160
1848, 1130, 1161, 1160
1849, 1130, 1131, 1161
1850, 1131, 1162, 1161
1851, 1131, 1132, 1162
1852, 1132, 1163, 1162
1853, 1132, 1133, 1163
1854, 1133, 1164, 1163
1855, 1133,   67, 1164
1856,   67,   68, 1164
1857,  110, 1134,  109
1858, 1134, 1165,  109
1859, 1134, 1135, 1165
1860, 1135, 1166, 1165
1861, 1135, 1136, 1166
1862, 1136, 1167, 1166
1863, 1136, 1137, 1167
1864, 1137, 1168, 1167
1865, 1137, 1138, 1168
1866, 1138, 1169, 1168
1867, 1138, 1139, 1169
1868, 1139, 1170, 1169
1869, 1139, 1140, 1170
1870, 1140, 1171, 1170
1871, 1140, 1141, 1171
1872, 1141, 1172, 1171
1873, 1141, 1142, 1172
1874, 1142, 1173, 1172
1875, 1142, 1143, 1173
1876, 1143, 1174, 1173
1877, 1143, 1144, 1174
1878, 1144, 1175, 1174
1879, 1144, 1145, 1175
1880, 1145, 1176, 1175
1881, 1145, 1146, 1176
1882, 1146, 1177, 1176
1883, 1146, 1147, 1177
1884, 1147, 1178, 1177
1885, 1147, 1148, 1178
1886, 1148, 1179, 1178
1887, 1148, 1149, 1179
1888, 1149, 1180, 1179
1889, 1149, 1150, 1180
1890, 1150, 1181, 1180
1891, 1150, 1151, 1181
1892, 1151, 1182, 1181
1893, 1151, 1152, 1182
1894, 1152, 1183, 1182
1895, 1152, 1153, 1183
1896, 1153, 1184, 1183
1897, 1153, 1154, 1184
1898, 1154, 1185, 1184
1899, 1154, 1155, 1185
1900, 1155, 1186, 1185
1901, 1155, 1156, 1186
1902, 1156, 1187, 1186
1903, 1156, 1157, 1187
1904, 1157, 1188, 1187
1905, 1157, 1158, 1188
1906, 1158, 1189, 1188
1907, 1158, 1159, 1189
1908, 1159, 1190, 1189
1909, 1159, 1160, 1190
1910, 1160, 1191, 1190
1911, 1160, 1161, 1191
1912, 1161, 1192, 1191
1913, 1161, 1162, 1192
1914, 1162, 1193, 1192
1915, 1162, 1163, 1193
1916, 1163, 1194, 1193
1917, 1163, 1164, 1194
1918, 1164, 1195, 1194
1919, 1164,   68, 1195
1920,   68,   69, 1195
1921,  109, 1165,  108
1922, 1165, 1196,  108
1923, 1165, 1166, 1196
1924, 1166, 1197, 1196
1925, 1166, 1167, 1197
1926, 1167, 1198, 1197
1927, 1167, 1168, 1198
1928, 1168, 1199, 1198
1929, 1168, 1169, 1199
1930, 1169, 1200, 1199
1931, 1169, 1170, 1200
1932, 1170, 1201, 1200
1933, 1170, 1171, 1201
1934, 1171, 1202, 1201
1935, 1171, 1172, 1202
1936, 1172, 1203, 1202
1937, 1172, 1173, 1203
1938, 1173, 1204, 1203
1939, 1173, 1174, 1204
1940, 1174, 1205, 1204
1941, 1174, 1175, 1205
1942, 1175, 1206, 1205
1943, 1175, 1176, 1206
1944, 1176, 1207, 1206
1945, 1176, 1177, 1207
1946, 1177, 1208, 1207
1947, 1177, 1178, 1208
1948, 1178, 1209, 1208
1949, 1178, 1179, 1209
1950, 1179, 1210, 1209
1951, 1179, 1180, 1210
1952, 1180, 1211, 1210
1953, 1180, 1181, 1211
1954, 1181, 1212, 1211
1955, 1181, 1182, 1212
1956, 1182, 1213, 1212
1957, 1182, 1183, 1213
1958, 1183, 1214, 1213
1959, 1183, 1184, 1214
1960, 1184, 1215, 1214
1961, 1184, 1185, 1215
1962, 1185, 1216, 1215
1963, 1185, 1186, 1216
1964, 1186, 1217, 1216
1965, 1186, 1187, 1217
1966, 1187, 1218, 1217
1967, 1187, 1188, 1218
1968, 1188, 1219, 1218
1969, 1188, 1189, 1219
1970, 1189, 1220, 1219
1971, 1189, 1190, 1220
1972, 1190, 1221, 1220
1973, 1190, 1191, 1221
1974, 1191, 1222, 1221
1975, 1191, 1192, 1222
1976, 1192, 1223, 1222
1977, 1192, 1193, 1223
1978, 1193, 1224, 1223
1979, 1193, 1194, 1224
1980, 1194, 1225, 1224
1981, 1194, 1195, 1225
1982, 1195, 1226, 1225
1983, 1195,   69, 1226
1984,   69,   70, 1226
1985,  108, 1196,  107
1986, 1196, 1227,  107
1987, 1196, 1197, 1227
1988, 1197, 1228, 1227
1989, 1197, 1198, 1228
1990, 1198, 1229, 1228
1991, 1198, 1199, 1229
1992, 1199, 1230, 1229
1993, 1199, 1200, 1230
1994, 1200, 1231, 1230
1995, 1200, 1201, 1231
1996, 1201, 1232, 1231
1997, 1201, 1202, 1232
1998, 1202, 1233, 1232
1999, 1202, 1203, 1233
2000, 1203, 1234, 1233
2001, 1203, 1204, 1234
2002, 1204, 1235, 1234
2003, 1204, 1205, 1235
2004, 1205, 1236, 1235
2005, 1205, 1206, 1236
2006, 1206, 1237, 1236
2007, 1206, 1207, 1237
2008, 1207, 1238, 1237
2009, 1207, 1208, 1238
2010, 1208, 1239, 1238
2011, 1208, 1209, 1239
2012, 1209, 1240, 1239
2013, 1209, 1210, 1240
2014, 1210, 1241, 1240
2015, 1210, 1211, 1241
2016, 1211, 1242, 1241
2017, 1211, 1212, 1242
2018, 1212, 1243, 1242
2019, 1212, 1213, 1243
2020, 1213, 1244, 1243
2021, 1213, 1214, 1244
2022, 1214, 1245, 1244
2023, 1214, 1215, 1245
2024, 1215, 1246, 1245
2025, 1215, 1216, 1246
2026, 1216, 1247, 1246
2027, 1216, 1217, 1247
2028, 1217, 1248, 1247
2029, 1217, 1218, 1248
2030, 1218, 1249, 1248
2031, 1218, 1219, 1249
2032, 1219, 1250, 1249
2033, 1219, 1220, 1250
2034, 1220, 1251, 1250
2035, 1220, 1221, 1251
2036, 1221, 1252, 1251
2037, 1221, 1222, 1252
2038, 1222, 1253, 1252
2039, 1222, 1223, 1253
2040, 1223, 1254, 1253
2041, 1223, 1224, 1254
2042, 1224, 1255, 1254
2043, 1224, 1225, 1255
2044, 1225, 1256, 1255
2045, 1225, 1226, 1256
2046, 1226, 1257, 1256
2047, 1226,   70, 1257
2048,   70,   71, 1257
2049,  107, 1227,  106
2050, 1227, 1258,  106
2051, 1227, 1228, 1258
2052, 1228, 1259, 1258
2053, 1228, 1229, 1259
2054, 1229, 1260, 1259
2055, 1229, 1230, 1260
2056, 1230, 1261, 1260
2057, 1230, 1231, 1261
2058, 1231, 1262, 1261
2059, 1231, 1232, 1262
2060, 1232, 1263, 1262
2061, 1232, 1233, 1263
2062, 1233, 1264, 1263
2063, 1233, 1234, 1264
2064, 1234, 1265, 1264
2065, 1234, 1235, 1265
2066, 1235, 1266, 1265
2067, 1235, 1236, 1266
2068, 1236, 1267, 1266
2069, 1236, 1237, 1267
2070, 1237, 1268, 1267
2071, 1237, 1238, 1268
2072, 1238, 1269, 1268
2073, 1238, 1239, 1269
2074, 1239, 1270, 1269
2075, 1239, 1240, 1270
2076, 1240, 1271, 1270
2077, 1240, 1241, 1271
2078, 1241, 1272, 1271
2079, 1241, 1242, 1272
2080, 1242, 1273, 1272
2081, 1242, 1243, 1273
2082, 1243, 1274, 1273
2083, 1243, 1244, 1274
2084, 1244, 1275, 1274
2085, 1244, 1245, 1275
2086, 1245, 1276, 1275
2087, 1245, 1246, 1276
2088, 1246, 1277, 1276
2089, 1246, 1247, 1277
2090, 1247, 1278, 1277
2091, 1247, 1248, 1278
2092, 1248, 1279, 1278
2093, 1248, 1249, 1279
2094, 1249, 1280, 1279
2095, 1249, 1250, 1280
2096, 1250, 1281, 1280
2097, 1250, 1251, 1281
2098, 1251, 1282, 1281
2099, 1251, 1252, 1282
2100, 1252, 1283, 1282
2101, 1252, 1253, 1283
2102, 1253, 1284, 1283
2103, 1253, 1254, 1284
2104, 1254, 1285, 1284
2105, 1254, 1255, 1285
2106, 1255, 1286, 1285
2107, 1255, 1256, 1286
2108, 1256, 1287, 1286
2109, 1256, 1257, 1287
2110, 1257, 1288, 1287
2111, 1257,   71, 1288
2112,   71,   72, 1288
2113,  106, 1258,  105
2114, 1258, 1289,  105
2115, 1258, 1259, 1289
2116, 1259, 1290, 1289
2117, 1259, 1260, 1290
2118, 1260, 1291, 1290
2119, 1260, 1261, 1291
2120, 1261, 1292, 1291
2121, 1261, 1262, 1292
2122, 1262, 1293, 1292
2123, 1262, 1263, 1293
2124, 1263, 1294, 1293
2125, 1263, 1264, 1294
2126, 1264, 1295, 1294
2127, 1264, 1265, 1295
2128, 1265, 1296, 1295
2129, 1265, 1266, 1296
2130, 1266, 1297, 1296
2131, 1266, 1267, 1297
2132, 1267, 1298, 1297
2133, 1267, 1268, 1298
2134, 1268, 1299, 1298
2135, 1268, 1269, 1299
2136, 1269, 1300, 1299
2137, 1269, 1270, 1300
2138, 1270, 1301, 1300
2139, 1270, 1271, 1301
2140, 1271, 1302, 1301
2141, 1271, 1272, 1302
2142, 1272, 1303, 1302
2143, 1272, 1273, 1303
2144, 1273, 1304, 1303
2145, 1273, 1274, 1304
2146, 1274, 1305, 1304
2147, 1274, 1275, 1305
2148, 1275, 1306, 1305
2149, 1275, 1276, 1306
2150, 1276, 1307, 1306
2151, 1276, 1277, 1307
2152, 1277, 1308, 1307
2153, 1277, 1278, 1308
2154, 1278, 1309, 1308
2155, 1278, 1279, 1309
2156, 1279, 1310, 1309
2157, 1279, 1280, 1310
2158, 1280, 1311, 1310
2159, 1280, 1281, 1311
2160, 1281, 1312, 1311
2161, 1281, 1282, 1312
2162, 1282, 1313, 1312
2163, 1282, 1283, 1313
2164, 1283, 1314, 1313
2165, 1283, 1284, 1314
2166, 1284, 1315, 1314
2167, 1284, 1285, 1315
2168, 1285, 1316, 1315
2169, 1285, 1286, 1316
2170, 1286, 1317, 1316
2171, 1286, 1287, 1317
2172, 1287, 1318, 1317
2173, 1287, 1288, 1318
2174, 1288, 1319, 1318
2175, 1288,   72, 1319
2176,   72,   73, 1319
2177,  105, 1289,    4
2178, 1289,  104,    4
2179, 1289, 1290,  104
2180, 1290,  103,  104
2181, 1290, 1291,  103
2182, 1291,  102,  103
2183, 1291, 1292,  102
2184, 1292,  101,  102
2185, 1292, 1293,  101
2186, 1293,  100,  101
2187, 1293, 1294,  100
2188, 1294,   99,  100
2189, 1294, 1295,   99
2190, 1295,   98,   99
2191, 1295, 1296,   98
2192, 1296,   97,   98
2193, 1296, 1297,   97
2194, 1297,   96,   97
2195, 1297, 1298,   96
2196, 1298,   95,   96
2197, 1298, 1299,   95
2198, 1299,   94,   95
2199, 1299, 1300,   94
2200, 1300,   93,   94
2201, 1300, 1301,   93
2202, 1301,   92,   93
2203, 1301, 1302,   92
2204, 1302,   91,   92
2205, 1302, 1303,   91
2206, 1303,   90,   91
2207, 1303, 1304,   90
2208, 1304,   89,   90
2209, 1304, 1305,   89
2210, 1305,   88,   89
2211, 1305, 1306,   88
2212, 1306,   87,   88
2213, 1306, 1307,   87
2214, 1307,   86,   87
2215, 1307, 1308,   86
2216, 1308,   85,   86
2217, 1308, 1309,   85
2218, 1309,   84,   85
2219, 1309, 1310,   84
2220, 1310,   83,   84
2221, 1310, 1311,   83
2222, 1311,   82,   83
2223, 1311, 1312,   82
2224, 1312,   81,   82
2225, 1312, 1313,   81
2226, 1313,   80,   81
2227, 1313, 1314,   80
2228, 1314,   79,   80
2229, 1314, 1315,   79
2230, 1315,   78,   79
2231, 1315, 1316,   78
2232, 1316,   77,   78
2233, 1316, 1317,   77
2234, 1317,   76,   77
2235, 1317, 1318,   76
2236, 1318,   75,   76
2237, 1318, 1319,   75
2238, 1319,   74,   75
2239, 1319,   73,   74
2240,   73,    3,   74
2241,    5,  139,  208
2242,  139, 1320,  208
2243,  139,  140, 1320
2244,  140, 1321, 1320
2245,  140,  141, 1321
2246,  141, 1322, 1321
2247,  141,  142, 1322
2248,  142, 1323, 1322
2249,  142,  143, 1323
2250,  143, 1324, 1323
2251,  143,  144, 1324
2252,  144, 1325, 1324
2253,  144,  145, 1325
2254,  145, 1326, 1325
2255,  145,  146, 1326
2256,  146, 1327, 1326
2257,  146,  147, 1327
2258,  147, 1328, 1327
2259,  147,  148, 1328
2260,  148, 1329, 1328
2261,  148,  149, 1329
2262,  149, 1330, 1329
2263,  149,  150, 1330
2264,  150, 1331, 1330
2265,  150,  151, 1331
2266,  151, 1332, 1331
2267,  151,  152, 1332
2268,  152, 1333, 1332
2269,  152,  153, 1333
2270,  153, 1334, 1333
2271,  153,  154, 1334
2272,  154, 1335, 1334
2273,  154,  155, 1335
2274,  155, 1336, 1335
2275,  155,  156, 1336
2276,  156, 1337, 1336
2277,  156,  157, 1337
2278,  157, 1338, 1337
2279,  157,  158, 1338
2280,  158, 1339, 1338
2281,  158,  159, 1339
2282,  159, 1340, 1339
2283,  159,  160, 1340
2284,  160, 1341, 1340
2285,  160,  161, 1341
2286,  161, 1342, 1341
2287,  161,  162, 1342
2288,  162, 1343, 1342
2289,  162,  163, 1343
2290,  163, 1344, 1343
2291,  163,  164, 1344
2292,  164, 1345, 1344
2293,  164,    1, 1345
2294,    1,  165, 1345
2295,  208, 1320,  207
2296, 1320, 1346,  207
2297, 1320, 1321, 1346
2298, 1321, 1347, 1346
2299, 1321, 1322, 1347
2300, 1322, 1348, 1347
2301, 1322, 1323, 1348
2302, 1323, 1349, 1348
2303, 1323, 1324, 1349
2304, 1324, 1350, 1349
2305, 1324, 1325, 1350
2306, 1325, 1351, 1350
2307, 1325, 1326, 1351
2308, 1326, 1352, 1351
2309, 1326, 1327, 1352
2310, 1327, 1353, 1352
2311, 1327, 1328, 1353
2312, 1328, 1354, 1353
2313, 1328, 1329, 1354
2314, 1329, 1355, 1354
2315, 1329, 1330, 1355
2316, 1330, 1356, 1355
2317, 1330, 1331, 1356
2318, 1331, 1357, 1356
2319, 1331, 1332, 1357
2320, 1332, 1358, 1357
2321, 1332, 1333, 1358
2322, 1333, 1359, 1358
2323, 1333, 1334, 1359
2324, 1334, 1360, 1359
2325, 1334, 1335, 1360
2326, 1335, 1361, 1360
2327, 1335, 1336, 1361
2328, 1336, 1362, 1361
2329, 1336, 1337, 1362
2330, 1337, 1363, 1362
2331, 1337, 1338, 1363
2332, 1338, 1364, 1363
2333, 1338, 1339, 1364
2334, 1339, 1365, 1364
2335, 1339, 1340, 1365
2336, 1340, 1366, 1365
2337, 1340, 1341, 1366
2338, 1341, 1367, 1366
2339, 1341, 1342, 1367
2340, 1342, 1368, 1367
2341, 1342, 1343, 1368
2342, 1343, 1369, 1368
2343, 1343, 1344, 1369
2344, 1344, 1370, 1369
2345, 1344, 1345, 1370
2346, 1345, 1371, 1370
2347, 1345,  165, 1371
2348,  165,  166, 1371
2349,  207, 1346,  206
2350, 1346, 1372,  206
2351, 1346, 1347, 1372
2352, 1347, 1373, 1372
2353, 1347, 1348, 1373
2354, 1348, 1374, 1373
2355, 1348, 1349, 1374
2356, 1349, 1375, 1374
2357, 1349, 1350, 1375
2358, 1350, 1376, 1375
2359, 1350, 1351, 1376
2360, 1351, 1377, 1376
2361, 1351, 1352, 1377
2362, 1352, 1378, 1377
2363, 1352, 1353, 1378
2364, 1353, 1379, 1378
2365, 1353, 1354, 1379
2366, 1354, 1380, 1379
2367, 1354, 1355, 1380
2368, 1355, 1381, 1380
2369, 1355, 1356, 1381
2370, 1356, 1382, 1381
2371, 1356, 1357, 1382
2372, 1357, 1383, 1382
2373, 1357, 1358, 1383
2374, 1358, 1384, 1383
2375, 1358, 1359, 1384
2376, 1359, 1385, 1384
2377, 1359, 1360, 1385
2378, 1360, 1386, 1385
2379, 1360, 1361, 1386
2380, 1361, 1387, 1386
2381, 1361, 1362, 1387
2382, 1362, 1388, 1387
2383, 1362, 1363, 1388
2384, 1363, 1389, 1388
2385, 1363, 1364, 1389
2386, 1364, 1390, 1389
2387, 1364, 1365, 1390
2388, 1365, 1391, 1390
2389, 1365, 1366, 1391
2390, 1366, 1392, 1391
2391, 1366, 1367, 1392
2392, 1367, 1393, 1392
2393, 1367, 1368, 1393
2394, 1368, 1394, 1393
2395, 1368, 1369, 1394
2396, 1369, 1395, 1394
2397, 1369, 1370, 1395
2398, 1370, 1396, 1395
2399, 1370, 1371, 1396
2400, 1371, 1397, 1396
2401, 1371,  166, 1397
2402,  166,  167, 1397
2403,  206, 1372,  205
2404, 1372, 1398,  205
2405, 1372, 1373, 1398
2406, 1373, 1399, 1398
2407, 1373, 1374, 1399
2408, 1374, 1400, 1399
2409, 1374, 1375, 1400
2410, 1375, 1401, 1400
2411, 1375, 1376, 1401
2412, 1376, 1402, 1401
2413, 1376, 1377, 1402
2414, 1377, 1403, 1402
2415, 1377, 1378, 1403
2416, 1378, 1404, 1403
2417, 1378, 1379, 1404
2418, 1379, 1405, 1404
2419, 1379, 1380, 1405
2420, 1380, 1406, 1405
2421, 1380, 1381, 1406
2422, 1381, 1407, 1406
2423, 1381, 1382, 1407
2424, 1382, 1408, 1407
2425, 1382, 1383, 1408
2426, 1383, 1409, 1408
2427, 1383, 1384, 1409
2428, 1384, 1410, 1409
2429, 1384, 1385, 1410
2430, 1385, 1411, 1410
2431, 1385, 1386, 1411
2432, 1386, 1412, 1411
2433, 1386, 1387, 1412
2434, 1387, 1413, 1412
2435, 1387, 1388, 1413
2436, 1388, 1414, 1413
2437, 1388, 1389, 1414
2438, 1389, 1415, 1414
2439, 1389, 1390, 1415
2440, 1390, 1416, 1415
2441, 1390, 1391, 1416
2442, 1391, 1417, 1416
2443, 1391, 1392, 1417
2444, 1392, 1418, 1417
2445, 1392, 1393, 1418
2446, 1393, 1419, 1418
2447, 1393, 1394, 1419
2448, 1394, 1420, 1419
2449, 1394, 1395, 1420
2450, 1395, 1421, 1420
2451, 1395, 1396, 1421
2452, 1396, 1422, 1421
2453, 1396, 1397, 1422
2454, 1397, 1423, 1422
2455, 1397,  167, 1423
2456,  167,  168, 1423
2457,  205, 1398,  204
2458, 1398, 1424,  204
2459, 1398, 1399, 1424
2460, 1399, 1425, 1424
2461, 1399, 1400, 1425
2462, 1400, 1426, 1425
2463, 1400, 1401, 1426
2464, 1401, 1427, 1426
2465, 1401, 1402, 1427
2466, 1402, 1428, 1427
2467, 1402, 1403, 1428
2468, 1403, 1429, 1428
2469, 1403, 1404, 1429
2470, 1404, 1430, 1429
2471, 1404, 1405, 1430
2472, 1405, 1431, 1430
2473, 1405, 1406, 1431
2474, 1406, 1432, 1431
2475, 1406, 1407, 1432
2476, 1407, 1433, 1432
2477, 1407, 1408, 1433
2478, 1408, 1434, 1433
2479, 1408, 1409, 1434
2480, 1409, 1435, 1434
2481, 1409, 1410, 1435
2482, 1410, 1436, 1435
2483, 1410, 1411, 1436
2484, 1411, 1437, 1436
2485, 1411, 1412, 1437
2486, 1412, 1438, 1437
2487, 1412, 1413, 1438
2488, 1413, 1439, 1438
2489, 1413, 1414, 1439
2490, 1414, 1440, 1439
2491, 1414, 1415, 1440
2492, 1415, 1441, 1440
2493, 1415, 1416, 1441
2494, 1416, 1442, 1441
2495, 1416, 1417, 1442
2496, 1417, 1443, 1442
2497, 1417, 1418, 1443
2498, 1418, 1444, 1443
2499, 1418, 1419, 1444
2500, 1419, 1445, 1444
2501, 1419, 1420, 1445
2502, 1420, 1446, 1445
2503, 1420, 1421, 1446
2504, 1421, 1447, 1446
2505, 1421, 1422, 1447
2506, 1422, 1448, 1447
2507, 1422, 1423, 1448
2508, 1423, 1449, 1448
2509, 1423,  168, 1449
2510,  168,  169, 1449
2511,  204, 1424,  203
2512, 1424, 1450,  203
2513, 1424, 1425, 1450
2514, 1425, 1451, 1450
2515, 1425, 1426, 1451
2516, 1426, 1452, 1451
2517, 1426, 1427, 1452
2518, 1427, 1453, 1452
2519, 1427, 1428, 1453
2520, 1428, 1454, 1453
2521, 1428, 1429, 1454
2522, 1429, 1455, 1454
2523, 1429, 1430, 1455
2524, 1430, 1456, 1455
2525, 1430, 1431, 1456
2526, 1431, 1457, 1456
2527, 1431, 1432, 1457
2528, 1432, 1458, 1457
2529, 1432, 1433, 1458
2530, 1433, 1459, 1458
2531, 1433, 1434, 1459
2532, 1434, 1460, 1459
2533, 1434, 1435, 1460
2534, 1435, 1461, 1460
2535, 1435, 1436, 1461
2536, 1436, 1462, 1461
2537, 1436, 1437, 1462
2538, 1437, 1463, 1462
2539, 1437, 1438, 1463
2540, 1438, 1464, 1463
2541, 1438, 1439, 1464
2542, 1439, 1465, 1464
2543, 1439, 1440, 1465
2544, 1440, 1466, 1465
2545, 1440, 1441, 1466
2546, 1441, 1467, 1466
2547, 1441, 1442, 1467
2548, 1442, 1468, 1467
2549, 1442, 1443, 1468
2550, 1443, 1469, 1468
2551, 1443, 1444, 1469
2552, 1444, 1470, 1469
2553, 1444, 1445, 1470
2554, 1445, 1471, 1470
2555, 1445, 1446, 1471
2556, 1446, 1472, 1471
2557, 1446, 1447, 1472
2558, 1447, 1473, 1472
2559, 1447, 1448, 1473
2560, 1448, 1474, 1473
2561, 1448, 1449, 1474
2562, 1449, 1475, 1474
2563, 1449,  169, 1475
2564,  169,  170, 1475
2565,  203, 1450,  202
2566, 1450, 1476,  202
2567, 1450, 1451, 1476
2568, 1451, 1477, 1476
2569, 1451, 1452, 1477
2570, 1452, 1478, 1477
2571, 1452, 1453, 1478
2572, 1453, 1479, 1478
2573, 1453, 1454, 1479
2574, 1454, 1480, 1479
2575, 1454, 1455, 1480
2576, 1455, 1481, 1480
2577, 1455, 1456, 1481
2578, 1456, 1482, 1481
2579, 1456, 1457, 1482
2580, 1457, 1483, 1482
2581, 1457, 1458, 1483
2582, 1458, 1484, 1483
2583, 1458, 1459, 1484
2584, 1459, 1485, 1484
2585, 1459, 1460, 1485
2586, 1460, 1486, 1485
2587, 1460, 1461, 1486
2588, 1461, 1487, 1486
2589, 1461, 1462, 1487
2590, 1462, 1488, 1487
2591, 1462, 1463, 1488
2592, 1463, 1489, 1488
2593, 1463, 1464, 1489
2594, 1464, 1490, 1489
2595, 1464, 1465, 1490
2596, 1465, 1491, 1490
2597, 1465, 1466, 1491
2598, 1466, 1492, 1491
2599, 1466, 1467, 1492
2600, 1467, 1493, 1492
2601, 1467, 1468, 1493
2602, 1468, 1494, 1493
2603, 1468, 1469, 1494
2604, 1469, 1495, 1494
2605, 1469, 1470, 1495
2606, 1470, 1496, 1495
2607, 1470, 1471, 1496
2608, 1471, 1497, 1496
2609, 1471, 1472, 1497
2610, 1472, 1498, 1497
2611, 1472, 1473, 1498
2612, 1473, 1499, 1498
2613, 1473, 1474, 1499
2614, 1474, 1500, 1499
2615, 1474, 1475, 1500
2616, 1475, 1501, 1500
2617, 1475,  170, 1501
2618,  170,  171, 1501
2619,  202, 1476,  201
2620, 1476, 1502,  201
2621, 1476, 1477, 1502
2622, 1477, 1503, 1502
2623, 1477, 1478, 1503
2624, 1478, 1504, 1503
2625, 1478, 1479, 1504
2626, 1479, 1505, 1504
2627, 1479, 1480, 1505
2628, 1480, 1506, 1505
2629, 1480, 1481, 1506
2630, 1481, 1507, 1506
2631, 1481, 1482, 1507
2632, 1482, 1508, 1507
2633, 1482, 1483, 1508
2634, 1483, 1509, 1508
2635, 1483, 1484, 1509
2636, 1484, 1510, 1509
2637, 1484, 1485, 1510
2638, 1485, 1511, 1510
2639, 1485, 1486, 1511
2640, 1486, 1512, 1511
2641, 1486, 1487, 1512
2642, 1487, 1513, 1512
2643, 1487, 1488, 1513
2644, 1488, 1514, 1513
2645, 1488, 1489, 1514
2646, 1489, 1515, 1514
2647, 1489, 1490, 1515
2648, 1490, 1516, 1515
2649, 1490, 1491, 1516
2650, 1491, 1517, 1516
2651, 1491, 1492, 1517
2652, 1492, 1518, 1517
2653, 1492, 1493, 1518
2654, 1493, 1519, 1518
2655, 1493, 1494, 1519
2656, 1494, 1520, 1519
2657, 1494, 1495, 1520
2658, 1495, 1521, 1520
2659, 1495, 1496, 1521
2660, 1496, 1522, 1521
2661, 1496, 1497, 1522
2662, 1497, 1523, 1522
2663, 1497, 1498, 1523
2664, 1498, 1524, 1523
2665, 1498, 1499, 1524
2666, 1499, 1525, 1524
2667, 1499, 1500, 1525
2668, 1500, 1526, 1525
2669, 1500, 1501, 1526
2670, 1501, 1527, 1526
2671, 1501,  171, 1527
2672,  171,  172, 1527
2673,  201, 1502,  200
2674, 1502, 1528,  200
2675, 1502, 1503, 1528
2676, 1503, 1529, 1528
2677, 1503, 1504, 1529
2678, 1504, 1530, 1529
2679, 1504, 1505, 1530
2680, 1505, 1531, 1530
2681, 1505, 1506, 1531
2682, 1506, 1532, 1531
2683, 1506, 1507, 1532
2684, 1507, 1533, 1532
2685, 1507, 1508, 1533
2686, 1508, 1534, 1533
2687, 1508, 1509, 1534
2688, 1509, 1535, 1534
2689, 1509, 1510, 1535
2690, 1510, 1536, 1535
2691, 1510, 1511, 1536
2692, 1511, 1537, 1536
2693, 1511, 1512, 1537
2694, 1512, 1538, 1537
2695, 1512, 1513, 1538
2696, 1513, 1539, 1538
2697, 1513, 1514, 1539
2698, 1514, 1540, 1539
2699, 1514, 1515, 1540
2700, 1515, 1541, 1540
2701, 1515, 1516, 1541
2702, 1516, 1542, 1541
2703, 1516, 1517, 1542
2704, 1517, 1543, 1542
2705, 1517, 1518, 1543
2706, 1518, 1544, 1543
2707, 1518, 1519, 1544
2708, 1519, 1545, 1544
2709, 1519, 1520, 1545
2710, 1520, 1546, 1545
2711, 1520, 1521, 1546
2712, 1521, 1547, 1546
2713, 1521, 1522, 1547
2714, 1522, 1548, 1547
2715, 1522, 1523, 1548
2716, 1523, 1549, 1548
2717, 1523, 1524, 1549
2718, 1524, 1550, 1549
2719, 1524, 1525, 1550
2720, 1525, 1551, 1550
2721, 1525, 1526, 1551
2722, 1526, 1552, 1551
2723, 1526, 1527, 1552
2724, 1527, 1553, 1552
2725, 1527,  172, 1553
2726,  172,  173, 1553
2727,  200, 1528,    7
2728, 1528,  199,    7
2729, 1528, 1529,  199
2730, 1529,  198,  199
2731, 1529, 1530,  198
2732, 1530,  197,  198
2733, 1530, 1531,  197
2734, 1531,  196,  197
2735, 1531, 1532,  196
2736, 1532,  195,  196
2737, 1532, 1533,  195
2738, 1533,  194,  195
2739, 1533, 1534,  194
2740, 1534,  193,  194
2741, 1534, 1535,  193
2742, 1535,  192,  193
2743, 1535, 1536,  192
2744, 1536,  191,  192
2745, 1536, 1537,  191
2746, 1537,  190,  191
2747, 1537, 1538,  190
2748, 1538,  189,  190
2749, 1538, 1539,  189
2750, 1539,  188,  189
2751, 1539, 1540,  188
2752, 1540,  187,  188
2753, 1540, 1541,  187
2754, 1541,  186,  187
2755, 1541, 1542,  186
2756, 1542,  185,  186
2757, 1542, 1543,  185
2758, 1543,  184,  185
2759, 1543, 1544,  184
2760, 1544,  183,  184
2761, 1544, 1545,  183
2762, 1545,  182,  183
2763, 1545, 1546,  182
2764, 1546,  181,  182
2765, 1546, 1547,  181
2766, 1547,  180,  181
2767, 1547, 1548,  180
2768, 1548,  179,  180
2769, 1548, 1549,  179
2770, 1549,  178,  179
2771, 1549, 1550,  178
2772, 1550,  177,  178
2773, 1550, 1551,  177
2774, 1551,  176,  177
2775, 1551, 1552,  176
2776, 1552,  175,  176
2777, 1552, 1553,  175
2778, 1553,  174,  175
2779, 1553,  173,  174
2780,  173,    6,  174
2781,    1,  164,    9
2782,  164, 1554,    9
2783,  164,  163, 1554
2784,  163, 1555, 1554
2785,  163,  162, 1555
2786,  162, 1556, 1555
2787,  162,  161, 1556
2788,  161, 1557, 1556
2789,  161,  160, 1557
2790,  160, 1558, 1557
2791,  160,  159, 1558
2792,  159, 1559, 1558
2793,  159,  158, 1559
2794,  158, 1560, 1559
2795,  158,  157, 1560
2796,  157, 1561, 1560
2797,  157,  156, 1561
2798,  156, 1562, 1561
2799,  156,  155, 1562
2800,  155, 1563, 1562
2801,  155,  154, 1563
2802,  154, 1564, 1563
2803,  154,  153, 1564
2804,  153, 1565, 1564
2805,  153,  152, 1565
2806,  152, 1566, 1565
2807,  152,  151, 1566
2808,  151, 1567, 1566
2809,  151,  150, 1567
2810,  150, 1568, 1567
2811,  150,  149, 1568
2812,  149, 1569, 1568
2813,  149,  148, 1569
2814,  148, 1570, 1569
2815,  148,  147, 1570
2816,  147, 1571, 1570
2817,  147,  146, 1571
2818,  146, 1572, 1571
2819,  146,  145, 1572
2820,  145, 1573, 1572
2821,  145,  144, 1573
2822,  144, 1574, 1573
2823,  144,  143, 1574
2824,  143, 1575, 1574
2825,  143,  142, 1575
2826,  142, 1576, 1575
2827,  142,  141, 1576
2828,  141, 1577, 1576
2829,  141,  140, 1577
2830,  140, 1578, 1577
2831,  140,  139, 1578
2832,  139, 1579, 1578
2833,  139,    5, 1579
2834,    5,  209, 1579
2835,    9, 1554,   10
2836, 1554, 1580,   10
2837, 1554, 1555, 1580
2838, 1555, 1581, 1580
2839, 1555, 1556, 1581
2840, 1556, 1582, 1581
2841, 1556, 1557, 1582
2842, 1557, 1583, 1582
2843, 1557, 1558, 1583
2844, 1558, 1584, 1583
2845, 1558, 1559, 1584
2846, 1559, 1585, 1584
2847, 1559, 1560, 1585
2848, 1560, 1586, 1585
2849, 1560, 1561, 1586
2850, 1561, 1587, 1586
2851, 1561, 1562, 1587
2852, 1562, 1588, 1587
2853, 1562, 1563, 1588
2854, 1563, 1589, 1588
2855, 1563, 1564, 1589
2856, 1564, 1590, 1589
2857, 1564, 1565, 1590
2858, 1565, 1591, 1590
2859, 1565, 1566, 1591
2860, 1566, 1592, 1591
2861, 1566, 1567, 1592
2862, 1567, 1593, 1592
2863, 1567, 1568, 1593
2864, 1568, 1594, 1593
2865, 1568, 1569, 1594
2866, 1569, 1595, 1594
2867, 1569, 1570, 1595
2868, 1570, 1596, 1595
2869, 1570, 1571, 1596
2870, 1571, 1597, 1596
2871, 1571, 1572, 1597
2872, 1572, 1598, 1597
2873, 1572, 1573, 1598
2874, 1573, 1599, 1598
2875, 1573, 1574, 1599
2876, 1574, 1600, 1599
2877, 1574, 1575, 1600
2878, 1575, 1601, 1600
2879, 1575, 1576, 1601
2880, 1576, 1602, 1601
2881, 1576, 1577, 1602
2882, 1577, 1603, 1602
2883, 1577, 1578, 1603
2884, 1578, 1604, 1603
2885, 1578, 1579, 1604
2886, 1579, 1605, 1604
2887, 1579,  209, 1605
2888,  209,  210, 1605
2889,   10, 1580,   11
2890, 1580, 1606,   11
2891, 1580, 1581, 1606
2892, 1581, 1607, 1606
2893, 1581, 1582, 1607
2894, 1582, 1608, 1607
2895, 1582, 1583, 1608
2896, 1583, 1609, 1608
2897, 1583, 1584, 1609
2898, 1584, 1610, 1609
2899, 1584, 1585, 1610
2900, 1585, 1611, 1610
2901, 1585, 1586, 1611
2902, 1586, 1612, 1611
2903, 1586, 1587, 1612
2904, 1587, 1613, 1612
2905, 1587, 1588, 1613
2906, 1588, 1614, 1613
2907, 1588, 1589, 1614
2908, 1589, 1615, 1614
2909, 1589, 1590, 1615
2910, 1590, 1616, 1615
2911, 1590, 1591, 1616
2912, 1591, 1617, 1616
2913, 1591, 1592, 1617
2914, 1592, 1618, 1617
2915, 1592, 1593, 1618
2916, 1593, 1619, 1618
2917, 1593, 1594, 1619
2918, 1594, 1620, 1619
2919, 1594, 1595, 1620
2920, 1595, 1621, 1620
2921, 1595, 1596, 1621
2922, 1596, 1622, 1621
2923, 1596, 1597, 1622
2924, 1597, 1623, 1622
2925, 1597, 1598, 1623
2926, 1598, 1624, 1623
2927, 1598, 1599, 1624
2928, 1599, 1625, 1624
2929, 1599, 1600, 1625
2930, 1600, 1626, 1625
2931, 1600, 1601, 1626
2932, 1601, 1627, 1626
2933, 1601, 1602, 1627
2934, 1602, 1628, 1627
2935, 1602, 1603, 1628
2936, 1603, 1629, 1628
2937, 1603, 1604, 1629
2938, 1604, 1630, 1629
2939, 1604, 1605, 1630
2940, 1605, 1631, 1630
2941, 1605,  210, 1631
2942,  210,  211, 1631
2943,   11, 1606,   12
2944, 1606, 1632,   12
2945, 1606, 1607, 1632
2946, 1607, 1633, 1632
2947, 1607, 1608, 1633
2948, 1608, 1634, 1633
2949, 1608, 1609, 1634
2950, 1609, 1635, 1634
2951, 1609, 1610, 1635
2952, 1610, 1636, 1635
2953, 1610, 1611, 1636
2954, 1611, 1637, 1636
2955, 1611, 1612, 1637
2956, 1612, 1638, 1637
2957, 1612, 1613, 1638
2958, 1613, 1639, 1638
2959, 1613, 1614, 1639
2960, 1614, 1640, 1639
2961, 1614, 1615, 1640
2962, 1615, 1641, 1640
2963, 1615, 1616, 1641
2964, 1616, 1642, 1641
2965, 1616, 1617, 1642
2966, 1617, 1643, 1642
2967, 1617, 1618, 1643
2968, 1618, 1644, 1643
2969, 1618, 1619, 1644
2970, 1619, 1645, 1644
2971, 1619, 1620, 1645
2972, 1620, 1646, 1645
2973, 1620, 1621, 1646
2974, 1621, 1647, 1646
2975, 1621, 1622, 1647
2976, 1622, 1648, 1647
2977, 1622, 1623, 1648
2978, 1623, 1649, 1648
2979, 1623, 1624, 1649
2980, 1624, 1650, 1649
2981, 1624, 1625, 1650
2982, 1625, 1651, 1650
2983, 1625, 1626, 1651
2984, 1626, 1652, 1651
2985, 1626, 1627, 1652
2986, 1627, 1653, 1652
2987, 1627, 1628, 1653
2988, 1628, 1654, 1653
2989, 1628, 1629, 1654
2990, 1629, 1655, 1654
2991, 1629, 1630, 1655
2992, 1630, 1656, 1655
2993, 1630, 1631, 1656
2994, 1631, 1657, 1656
2995, 1631,  211, 1657
2996,  211,  212, 1657
2997,   12, 1632,   13
2998, 1632, 1658,   13
2999, 1632, 1633, 1658
3000, 1633, 1659, 1658
3001, 1633, 1634, 1659
3002, 1634, 1660, 1659
3003, 1634, 1635, 1660
3004, 1635, 1661, 1660
3005, 1635, 1636, 1661
3006, 1636, 1662, 1661
3007, 1636, 1637, 1662
3008, 1637, 1663, 1662
3009, 1637, 1638, 1663
3010, 1638, 1664, 1663
3011, 1638, 1639, 1664
3012, 1639, 1665, 1664
3013, 1639, 1640, 1665
3014, 1640, 1666, 1665
3015, 1640, 1641, 1666
3016, 1641, 1667, 1666
3017, 1641, 1642, 1667
3018, 1642, 1668, 1667
3019, 1642, 1643, 1668
3020, 1643, 1669, 1668
3021, 1643, 1644, 1669
3022, 1644, 1670, 1669
3023, 1644, 1645, 1670
3024, 1645, 1671, 1670
3025, 1645, 1646, 1671
3026, 1646, 1672, 1671
3027, 1646, 1647, 1672
3028, 1647, 1673, 1672
3029, 1647, 1648, 1673
3030, 1648, 1674, 1673
3031, 1648, 1649, 1674
3032, 1649, 1675, 1674
3033, 1649, 1650, 1675
3034, 1650, 1676, 1675
3035, 1650, 1651, 1676
3036, 1651, 1677, 1676
3037, 1651, 1652, 1677
3038, 1652, 1678, 1677
3039, 1652, 1653, 1678
3040, 1653, 1679, 1678
3041, 1653, 1654, 1679
3042, 1654, 1680, 1679
3043, 1654, 1655, 1680
3044, 1655, 1681, 1680
3045, 1655, 1656, 1681
3046, 1656, 1682, 1681
3047, 1656, 1657, 1682
3048, 1657, 1683, 1682
3049, 1657,  212, 1683
3050,  212,  213, 1683
3051,   13, 1658,   14
3052, 1658, 1684,   14
3053, 1658, 1659, 1684
3054, 1659, 1685, 1684
3055, 1659, 1660, 1685
3056, 1660, 1686, 1685
3057, 1660, 1661, 1686
3058, 1661, 1687, 1686
3059, 1661, 1662, 1687
3060, 1662, 1688, 1687
3061, 1662, 1663, 1688
3062, 1663, 1689, 1688
3063, 1663, 1664, 1689
3064, 1664, 1690, 1689
3065, 1664, 1665, 1690
3066, 1665, 1691, 1690
3067, 1665, 1666, 1691
3068, 1666, 1692, 1691
3069, 1666, 1667, 1692
3070, 1667, 1693, 1692
3071, 1667, 1668, 1693
3072, 1668, 1694, 1693
3073, 1668, 1669, 1694
3074, 1669, 1695, 1694
3075, 1669, 1670, 1695
3076, 1670, 1696, 1695
3077, 1670, 1671, 1696
3078, 1671, 1697, 1696
3079, 1671, 1672, 1697
3080, 1672, 1698, 1697
3081, 1672, 1673, 1698
3082, 1673, 1699, 1698
3083, 1673, 1674, 1699
3084, 1674, 1700, 1699
3085, 1674, 1675, 1700
3086, 1675, 1701, 1700
3087, 1675, 1676, 1701
3088, 1676, 1702, 1701
3089, 1676, 1677, 1702
3090, 1677, 1703, 1702
3091, 1677, 1678, 1703
3092, 1678, 1704, 1703
3093, 1678, 1679, 1704
3094, 1679, 1705, 1704
3095, 1679, 1680, 1705
3096, 1680, 1706, 1705
3097, 1680, 1681, 1706
3098, 1681, 1707, 1706
3099, 1681, 1682, 1707
3100, 1682, 1708, 1707
3101, 1682, 1683, 1708
3102, 1683, 1709, 1708
3103, 1683,  213, 1709
3104,  213,  214, 1709
3105,   14, 1684,   15
3106, 1684, 1710,   15
3107, 1684, 1685, 1710
3108, 1685, 1711, 1710
3109, 1685, 1686, 1711
3110, 1686, 1712, 1711
3111, 1686, 1687, 1712
3112, 1687, 1713, 1712
3113, 1687, 1688, 1713
3114, 1688, 1714, 1713
3115, 1688, 1689, 1714
3116, 1689, 1715, 1714
3117, 1689, 1690, 1715
3118, 1690, 1716, 1715
3119, 1690, 1691, 1716
3120, 1691, 1717, 1716
3121, 1691, 1692, 1717
3122, 1692, 1718, 1717
3123, 1692, 1693, 1718
3124, 1693, 1719, 1718
3125, 1693, 1694, 1719
3126, 1694, 1720, 1719
3127, 1694, 1695, 1720
3128, 1695, 1721, 1720
3129, 1695, 1696, 1721
3130, 1696, 1722, 1721
3131, 1696, 1697, 1722
3132, 1697, 1723, 1722
3133, 1697, 1698, 1723
3134, 1698, 1724, 1723
3135, 1698, 1699, 1724
3136, 1699, 1725, 1724
3137, 1699, 1700, 1725
3138, 1700, 1726, 1725
3139, 1700, 1701, 1726
3140, 1701, 1727, 1726
3141, 1701, 1702, 1727
3142, 1702, 1728, 1727
3143, 1702, 1703, 1728
3144, 1703, 1729, 1728
3145, 1703, 1704, 1729
3146, 1704, 1730, 1729
3147, 1704, 1705, 1730
3148, 1705, 1731, 1730
3149, 1705, 1706, 1731
3150, 1706, 1732, 1731
3151, 1706, 1707, 1732
3152, 1707, 1733, 1732
3153, 1707, 1708, 1733
3154, 1708, 1734, 1733
3155, 1708, 1709, 1734
3156, 1709, 1735, 1734
3157, 1709,  214, 1735
3158,  214,  215, 1735
3159,   15, 1710,   16
3160, 1710, 1736,   16
3161, 1710, 1711, 1736
3162, 1711, 1737, 1736
3163, 1711, 1712, 1737
3164, 1712, 1738, 1737
3165, 1712, 1713, 1738
3166, 1713, 1739, 1738
3167, 1713, 1714, 1739
3168, 1714, 1740, 1739
3169, 1714, 1715, 1740
3170, 1715, 1741, 1740
3171, 1715, 1716, 1741
3172, 1716, 1742, 1741
3173, 1716, 1717, 1742
3174, 1717, 1743, 1742
3175, 1717, 1718, 1743
3176, 1718, 1744, 1743
3177, 1718, 1719, 1744
3178, 1719, 1745, 1744
3179, 1719, 1720, 1745
3180, 1720, 1746, 1745
3181, 1720, 1721, 1746
3182, 1721, 1747, 1746
3183, 1721, 1722, 1747
3184, 1722, 1748, 1747
3185, 1722, 1723, 1748
3186, 1723, 1749, 1748
3187, 1723, 1724, 1749
3188, 1724, 1750, 1749
3189, 1724, 1725, 1750
3190, 1725, 1751, 1750
3191, 1725, 1726, 1751
3192, 1726, 1752, 1751
3193, 1726, 1727, 1752
3194, 1727, 1753, 1752
3195, 1727, 1728, 1753
3196, 1728, 1754, 1753
3197, 1728, 1729, 1754
3198, 1729, 1755, 1754
3199, 1729, 1730, 1755
3200, 1730, 1756, 1755
3201, 1730, 1731, 1756
3202, 1731, 1757, 1756
3203, 1731, 1732, 1757
3204, 1732, 1758, 1757
3205, 1732, 1733, 1758
3206, 1733, 1759, 1758
3207, 1733, 1734, 1759
3208, 1734, 1760, 1759
3209, 1734, 1735, 1760
3210, 1735, 1761, 1760
3211, 1735,  215, 1761
3212,  215,  216, 1761
3213,   16, 1736,   17
3214, 1736, 1762,   17
3215, 1736, 1737, 1762
3216, 1737, 1763, 1762
3217, 1737, 1738, 1763
3218, 1738, 1764, 1763
3219, 1738, 1739, 1764
3220, 1739, 1765, 1764
3221, 1739, 1740, 1765
3222, 1740, 1766, 1765
3223, 1740, 1741, 1766
3224, 1741, 1767, 1766
3225, 1741, 1742, 1767
3226, 1742, 1768, 1767
3227, 1742, 1743, 1768
3228, 1743, 1769, 1768
3229, 1743, 1744, 1769
3230, 1744, 1770, 1769
3231, 1744, 1745, 1770
3232, 1745, 1771, 1770
3233, 1745, 1746, 1771
3234, 1746, 1772, 1771
3235, 1746, 1747, 1772
3236, 1747, 1773, 1772
3237, 1747, 1748, 1773
3238, 1748, 1774, 1773
3239, 1748, 1749, 1774
3240, 1749, 1775, 1774
3241, 1749, 1750, 1775
3242, 1750, 1776, 1775
3243, 1750, 1751, 1776
3244, 1751, 1777, 1776
3245, 1751, 1752, 1777
3246, 1752, 1778, 1777
3247, 1752, 1753, 1778
3248, 1753, 1779, 1778
3249, 1753, 1754, 1779
3250, 1754, 1780, 1779
3251, 1754, 1755, 1780
3252, 1755, 1781, 1780
3253, 1755, 1756, 1781
3254, 1756, 1782, 1781
3255, 1756, 1757, 1782
3256, 1757, 1783, 1782
3257, 1757, 1758, 1783
3258, 1758, 1784, 1783
3259, 1758, 1759, 1784
3260, 1759, 1785, 1784
3261, 1759, 1760, 1785
3262, 1760, 1786, 1785
3263, 1760, 1761, 1786
3264, 1761, 1787, 1786
3265, 1761,  216, 1787
3266,  216,  217, 1787
3267,   17, 1762,   18
3268, 1762, 1788,   18
3269, 1762, 1763, 1788
3270, 1763, 1789, 1788
3271, 1763, 1764, 1789
3272, 1764, 1790, 1789
3273, 1764, 1765, 1790
3274, 1765, 1791, 1790
3275, 1765, 1766, 1791
3276, 1766, 1792, 1791
3277, 1766, 1767, 1792
3278, 1767, 1793, 1792
3279, 1767, 1768, 1793
3280, 1768, 1794, 1793
3281, 1768, 1769, 1794
3282, 1769, 1795, 1794
3283, 1769, 1770, 1795
3284, 1770, 1796, 1795
3285, 1770, 1771, 1796
3286, 1771, 1797, 1796
3287, 1771, 1772, 1797
3288, 1772, 1798, 1797
3289, 1772, 1773, 1798
3290, 1773, 1799, 1798
3291, 1773, 1774, 1799
3292, 1774, 1800, 1799
3293, 1774, 1775, 1800
3294, 1775, 1801, 1800
3295, 1775, 1776, 1801
3296, 1776, 1802, 1801
3297, 1776, 1777, 1802
3298, 1777, 1803, 1802
3299, 1777, 1778, 1803
3300, 1778, 1804, 1803
3301, 1778, 1779, 1804
3302, 1779, 1805, 1804
3303, 1779, 1780, 1805
3304, 1780, 1806, 1805
3305, 1780, 1781, 1806
3306, 1781, 1807, 1806
3307, 1781, 1782, 1807
3308, 1782, 1808, 1807
3309, 1782, 1783, 1808
3310, 1783, 1809, 1808
3311, 1783, 1784, 1809
3312, 1784, 1810, 1809
3313, 1784, 1785, 1810
3314, 1785, 1811, 1810
3315, 1785, 1786, 1811
3316, 1786, 1812, 1811
3317, 1786, 1787, 1812
3318, 1787, 1813, 1812
3319, 1787,  217, 1813
3320,  217,  218, 1813
3321,   18, 1788,   19
3322, 1788, 1814,   19
3323, 1788, 1789, 1814
3324, 1789, 1815, 1814
3325, 1789, 1790, 1815
3326, 1790, 1816, 1815
3327, 1790, 1791, 1816
3328, 1791, 1817, 1816
3329, 1791, 1792, 1817
3330, 1792, 1818, 1817
3331, 1792, 1793, 1818
3332, 1793, 1819, 1818
3333, 1793, 1794, 1819
3334, 1794, 1820, 1819
3335, 1794, 1795, 1820
3336, 1795, 1821, 1820
3337, 1795, 1796, 1821
3338, 1796, 1822, 1821
3339, 1796, 1797, 1822
3340, 1797, 1823, 1822
3341, 1797, 1798, 1823
3342, 1798, 1824, 1823
3343, 1798, 1799, 1824
3344, 1799, 1825, 1824
3345, 1799, 1800, 1825
3346, 1800, 1826, 1825
3347, 1800, 1801, 1826
3348, 1801, 1827, 1826
3349, 1801, 1802, 1827
3350, 1802, 1828, 1827
3351, 1802, 1803, 1828
3352, 1803, 1829, 1828
3353, 1803, 1804, 1829
3354, 1804, 1830, 1829
3355, 1804, 1805, 1830
3356, 1805, 1831, 1830
3357, 1805, 1806, 1831
3358, 1806, 1832, 1831
3359, 1806, 1807, 1832
3360, 1807, 1833, 1832
3361, 1807, 1808, 1833
3362, 1808, 1834, 1833
3363, 1808, 1809, 1834
3364, 1809, 1835, 1834
3365, 1809, 1810, 1835
3366, 1810, 1836, 1835
3367, 1810, 1811, 1836
3368, 1811, 1837, 1836
3369, 1811, 1812, 1837
3370, 1812, 1838, 1837
3371, 1812, 1813, 1838
3372, 1813, 1839, 1838
3373, 1813,  218, 1839
3374,  218,  219, 1839
3375,   19, 1814,   20
3376, 1814, 1840,   20
3377, 1814, 1815, 1840
3378, 1815, 1841, 1840
3379, 1815, 1816, 1841
3380, 1816, 1842, 1841
3381, 1816, 1817, 1842
3382, 1817, 1843, 1842
3383, 1817, 1818, 1843
3384, 1818, 1844, 1843
3385, 1818, 1819, 1844
3386, 1819, 1845, 1844
3387, 1819, 1820, 1845
3388, 1820, 1846, 1845
3389, 1820, 1821, 1846
3390, 1821, 1847, 1846
3391, 1821, 1822, 1847
3392, 1822, 1848, 1847
3393, 1822, 1823, 1848
3394, 1823, 1849, 1848
3395, 1823, 1824, 1849
3396, 1824, 1850, 1849
3397, 1824, 1825, 1850
3398, 1825, 1851, 1850
3399, 1825, 1826, 1851
3400, 1826, 1852, 1851
3401, 1826, 1827, 1852
3402, 1827, 1853, 1852
3403, 1827, 1828, 1853
3404, 1828, 1854, 1853
3405, 1828, 1829, 1854
3406, 1829, 1855, 1854
3407, 1829, 1830, 1855
3408, 1830, 1856, 1855
3409, 1830, 1831, 1856
3410, 1831, 1857, 1856
3411, 1831, 1832, 1857
3412, 1832, 1858, 1857
3413, 1832, 1833, 1858
3414, 1833, 1859, 1858
3415, 1833, 1834, 1859
3416, 1834, 1860, 1859
3417, 1834, 1835, 1860
3418, 1835, 1861, 1860
3419, 1835, 1836, 1861
3420, 1836, 1862, 1861
3421, 1836, 1837, 1862
3422, 1837, 1863, 1862
3423, 1837, 1838, 1863
3424, 1838, 1864, 1863
3425, 1838, 1839, 1864
3426, 1839, 1865, 1864
3427, 1839,  219, 1865
3428,  219,  220, 1865
3429,   20, 1840,   21
3430, 1840, 1866,   21
3431, 1840, 1841, 1866
3432, 1841, 1867, 1866
3433, 1841, 1842, 1867
3434, 1842, 1868, 1867
3435, 1842, 1843, 1868
3436, 1843, 1869, 1868
3437, 1843, 1844, 1869
3438, 1844, 1870, 1869
3439, 1844, 1845, 1870
3440, 1845, 1871, 1870
3441, 1845, 1846, 1871
3442, 1846, 1872, 1871
3443, 1846, 1847, 1872
3444, 1847, 1873, 1872
3445, 1847, 1848, 1873
3446, 1848, 1874, 1873
3447, 1848, 1849, 1874
3448, 1849, 1875, 1874
3449, 1849, 1850, 1875
3450, 1850, 1876, 1875
3451, 1850, 1851, 1876
3452, 1851, 1877, 1876
3453, 1851, 1852, 1877
3454, 1852, 1878, 1877
3455, 1852, 1853, 1878
3456, 1853, 1879, 1878
3457, 1853, 1854, 1879
3458, 1854, 1880, 1879
3459, 1854, 1855, 1880
3460, 1855, 1881, 1880
3461, 1855, 1856, 1881
3462, 1856, 1882, 1881
3463, 1856, 1857, 1882
3464, 1857, 1883, 1882
3465, 1857, 1858, 1883
3466, 1858, 1884, 1883
3467, 1858, 1859, 1884
3468, 1859, 1885, 1884
3469, 1859, 1860, 1885
3470, 1860, 1886, 1885
3471, 1860, 1861, 1886
3472, 1861, 1887, 1886
3473, 1861, 1862, 1887
3474, 1862, 1888, 1887
3475, 1862, 1863, 1888
3476, 1863, 1889, 1888
3477, 1863, 1864, 1889
3478, 1864, 1890, 1889
3479, 1864, 1865, 1890
3480, 1865, 1891, 1890
3481, 1865,  220, 1891
3482,  220,  221, 1891
3483,   21, 1866,   22
3484, 1866, 1892,   22
3485, 1866, 1867, 1892
3486, 1867, 1893, 1892
3487, 1867, 1868, 1893
3488, 1868, 1894, 1893
3489, 1868, 1869, 1894
3490, 1869, 1895, 1894
3491, 1869, 1870, 1895
3492, 1870, 1896, 1895
3493, 1870, 1871, 1896
3494, 1871, 1897, 1896
3495, 1871, 1872, 1897
3496, 1872, 1898, 1897
3497, 1872, 1873, 1898
3498, 1873, 1899, 1898
3499, 1873, 1874, 1899
3500, 1874, 1900, 1899
3501, 1874, 1875, 1900
3502, 1875, 1901, 1900
3503, 1875, 1876, 1901
3504, 1876, 1902, 1901
3505, 1876, 1877, 1902
3506, 1877, 1903, 1902
3507, 1877, 1878, 1903
3508, 1878, 1904, 1903
3509, 1878, 1879, 1904
3510, 1879, 1905, 1904
3511, 1879, 1880, 1905
3512, 1880, 1906, 1905
3513, 1880, 1881, 1906
3514, 1881, 1907, 1906
3515, 1881, 1882, 1907
3516, 1882, 1908, 1907
3517, 1882, 1883, 1908
3518, 1883, 1909, 1908
3519, 1883, 1884, 1909
3520, 1884, 1910, 1909
3521, 1884, 1885, 1910
3522, 1885, 1911, 1910
3523, 1885, 1886, 1911
3524, 1886, 1912, 1911
3525, 1886, 1887, 1912
3526, 1887, 1913, 1912
3527, 1887, 1888, 1913
3528, 1888, 1914, 1913
3529, 1888, 1889, 1914
3530, 1889, 1915, 1914
3531, 1889, 1890, 1915
3532, 1890, 1916, 1915
3533, 1890, 1891, 1916
3534, 1891, 1917, 1916
3535, 1891,  221, 1917
3536,  221,  222, 1917
3537,   22, 1892,   23
3538, 1892, 1918,   23
3539, 1892, 1893, 1918
3540, 1893, 1919, 1918
3541, 1893, 1894, 1919
3542, 1894, 1920, 1919
3543, 1894, 1895, 1920
3544, 1895, 1921, 1920
3545, 1895, 1896, 1921
3546, 1896, 1922, 1921
3547, 1896, 1897, 1922
3548, 1897, 1923, 1922
3549, 1897, 1898, 1923
3550, 1898, 1924, 1923
3551, 1898, 1899, 1924
3552, 1899, 1925, 1924
3553, 1899, 1900, 1925
3554, 1900, 1926, 1925
3555, 1900, 1901, 1926
3556, 1901, 1927, 1926
3557, 1901, 1902, 1927
3558, 1902, 1928, 1927
3559, 1902, 1903, 1928
3560, 1903, 1929, 1928
3561, 1903, 1904, 1929
3562, 1904, 1930, 1929
3563, 1904, 1905, 1930
3564, 1905, 1931, 1930
3565, 1905, 1906, 1931
3566, 1906, 1932, 1931
3567, 1906, 1907, 1932
3568, 1907, 1933, 1932
3569, 1907, 1908, 1933
3570, 1908, 1934, 1933
3571, 1908, 1909, 1934
3572, 1909, 1935, 1934
3573, 1909, 1910, 1935
3574, 1910, 1936, 1935
3575, 1910, 1911, 1936
3576, 1911, 1937, 1936
3577, 1911, 1912, 1937
3578, 1912, 1938, 1937
3579, 1912, 1913, 1938
3580, 1913, 1939, 1938
3581, 1913, 1914, 1939
3582, 1914, 1940, 1939
3583, 1914, 1915, 1940
3584, 1915, 1941, 1940
3585, 1915, 1916, 1941
3586, 1916, 1942, 1941
3587, 1916, 1917, 1942
3588, 1917, 1943, 1942
3589, 1917,  222, 1943
3590,  222,  223, 1943
3591,   23, 1918,   24
3592, 1918, 1944,   24
3593, 1918, 1919, 1944
3594, 1919, 1945, 1944
3595, 1919, 1920, 1945
3596, 1920, 1946, 1945
3597, 1920, 1921, 1946
3598, 1921, 1947, 1946
3599, 1921, 1922, 1947
3600, 1922, 1948, 1947
3601, 1922, 1923, 1948
3602, 1923, 1949, 1948
3603, 1923, 1924, 1949
3604, 1924, 1950, 1949
3605, 1924, 1925, 1950
3606, 1925, 1951, 1950
3607, 1925, 1926, 1951
3608, 1926, 1952, 1951
3609, 1926, 1927, 1952
3610, 1927, 1953, 1952
3611, 1927, 1928, 1953
3612, 1928, 1954, 1953
3613, 1928, 1929, 1954
3614, 1929, 1955, 1954
3615, 1929, 1930, 1955
3616, 1930, 1956, 1955
3617, 1930, 1931, 1956
3618, 1931, 1957, 1956
3619, 1931, 1932, 1957
3620, 1932, 1958, 1957
3621, 1932, 1933, 1958
3622, 1933, 1959, 1958
3623, 1933, 1934, 1959
3624, 1934, 1960, 1959
3625, 1934, 1935, 1960
3626, 1935, 1961, 1960
3627, 1935, 1936, 1961
3628, 1936, 1962, 1961
3629, 1936, 1937, 1962
3630, 1937, 1963, 1962
3631, 1937, 1938, 1963
3632, 1938, 1964, 1963
3633, 1938, 1939, 1964
3634, 1939, 1965, 1964
3635, 1939, 1940, 1965
3636, 1940, 1966, 1965
3637, 1940, 1941, 1966
3638, 1941, 1967, 1966
3639, 1941, 1942, 1967
3640, 1942, 1968, 1967
3641, 1942, 1943, 1968
3642, 1943, 1969, 1968
3643, 1943,  223, 1969
3644,  223,  224, 1969
3645,   24, 1944,   25
3646, 1944, 1970,   25
3647, 1944, 1945, 1970
3648, 1945, 1971, 1970
3649, 1945, 1946, 1971
3650, 1946, 1972, 1971
3651, 1946, 1947, 1972
3652, 1947, 1973, 1972
3653, 1947, 1948, 1973
3654, 1948, 1974, 1973
3655, 1948, 1949, 1974
3656, 1949, 1975, 1974
3657, 1949, 1950, 1975
3658, 1950, 1976, 1975
3659, 1950, 1951, 1976
3660, 1951, 1977, 1976
3661, 1951, 1952, 1977
3662, 1952, 1978, 1977
3663, 1952, 1953, 1978
3664, 1953, 1979, 1978
3665, 1953, 1954, 1979
3666, 1954, 1980, 1979
3667, 1954, 1955, 1980
3668, 1955, 1981, 1980
3669, 1955, 1956, 1981
3670, 1956, 1982, 1981
3671, 1956, 1957, 1982
3672, 1957, 1983, 1982
3673, 1957, 1958, 1983
3674, 1958, 1984, 1983
3675, 1958, 1959, 1984
3676, 1959, 1985, 1984
3677, 1959, 1960, 1985
3678, 1960, 1986, 1985
3679, 1960, 1961, 1986
3680, 1961, 1987, 1986
3681, 1961, 1962, 1987
3682, 1962, 1988, 1987
3683, 1962, 1963, 1988
3684, 1963, 1989, 1988
3685, 1963, 1964, 1989
3686, 1964, 1990, 1989
3687, 1964, 1965, 1990
3688, 1965, 1991, 1990
3689, 1965, 1966, 1991
3690, 1966, 1992, 1991
3691, 1966, 1967, 1992
3692, 1967, 1993, 1992
3693, 1967, 1968, 1993
3694, 1968, 1994, 1993
3695, 1968, 1969, 1994
3696, 1969, 1995, 1994
3697, 1969,  224, 1995
3698,  224,  225, 1995
3699,   25, 1970,   26
3700, 1970, 1996,   26
3701, 1970, 1971, 1996
3702, 1971, 1997, 1996
3703, 1971, 1972, 1997
3704, 1972, 1998, 1997
3705, 1972, 1973, 1998
3706, 1973, 1999, 1998
3707, 1973, 1974, 1999
3708, 1974, 2000, 1999
3709, 1974, 1975, 2000
3710, 1975, 2001, 2000
3711, 1975, 1976, 2001
3712, 1976, 2002, 2001
3713, 1976, 1977, 2002
3714, 1977, 2003, 2002
3715, 1977, 1978, 2003
3716, 1978, 2004, 2003
3717, 1978, 1979, 2004
3718, 1979, 2005, 2004
3719, 1979, 1980, 2005
3720, 1980, 2006, 2005
3721, 1980, 1981, 2006
3722, 1981, 2007, 2006
3723, 1981, 1982, 2007
3724, 1982, 2008, 2007
3725, 1982, 1983, 2008
3726, 1983, 2009, 2008
3727, 1983, 1984, 2009
3728, 1984, 2010, 2009
3729, 1984, 1985, 2010
3730, 1985, 2011, 2010
3731, 1985, 1986, 2011
3732, 1986, 2012, 2011
3733, 1986, 1987, 2012
3734, 1987, 2013, 2012
3735, 1987, 1988, 2013
3736, 1988, 2014, 2013
3737, 1988, 1989, 2014
3738, 1989, 2015, 2014
3739, 1989, 1990, 2015
3740, 1990, 2016, 2015
3741, 1990, 1991, 2016
3742, 1991, 2017, 2016
3743, 1991, 1992, 2017
3744, 1992, 2018, 2017
3745, 1992, 1993, 2018
3746, 1993, 2019, 2018
3747, 1993, 1994, 2019
3748, 1994, 2020, 2019
3749, 1994, 1995, 2020
3750, 1995, 2021, 2020
3751, 1995,  225, 2021
3752,  225,  226, 2021
3753,   26, 1996,   27
3754, 1996, 2022,   27
3755, 1996, 1997, 2022
3756, 1997, 2023, 2022
3757, 1997, 1998, 2023
3758, 1998, 2024, 2023
3759, 1998, 1999, 2024
3760, 1999, 2025, 2024
3761, 1999, 2000, 2025
3762, 2000, 2026, 2025
3763, 2000, 2001, 2026
3764, 2001, 2027, 2026
3765, 2001, 2002, 2027
3766, 2002, 2028, 2027
3767, 2002, 2003, 2028
3768, 2003, 2029, 2028
3769, 2003, 2004, 2029
3770, 2004, 2030, 2029
3771, 2004, 2005, 2030
3772, 2005, 2031, 2030
3773, 2005, 2006, 2031
3774, 2006, 2032, 2031
3775, 2006, 2007, 2032
3776, 2007, 2033, 2032
3777, 2007, 2008, 2033
3778, 2008, 2034, 2033
3779, 2008, 2009, 2034
3780, 2009, 2035, 2034
3781, 2009, 2010, 2035
3782, 2010, 2036, 2035
3783, 2010, 2011, 2036
3784, 2011, 2037, 2036
3785, 2011, 2012, 2037
3786, 2012, 2038, 2037
3787, 2012, 2013, 2038
3788, 2013, 2039, 2038
3789, 2013, 2014, 2039
3790, 2014, 2040, 2039
3791, 2014, 2015, 2040
3792, 2015, 2041, 2040
3793, 2015, 2016, 2041
3794, 2016, 2042, 2041
3795, 2016, 2017, 2042
3796, 2017, 2043, 2042
3797, 2017, 2018, 2043
3798, 2018, 2044, 2043
3799, 2018, 2019, 2044
3800, 2019, 2045, 2044
3801, 2019, 2020, 2045
3802, 2020, 2046, 2045
3803, 2020, 2021, 2046
3804, 2021, 2047, 2046
3805, 2021,  226, 2047
3806,  226,  227, 2047
3807,   27, 2022,   28
3808, 2022, 2048,   28
3809, 2022, 2023, 2048
3810, 2023, 2049, 2048
3811, 2023, 2024, 2049
3812, 2024, 2050, 2049
3813, 2024, 2025, 2050
3814, 2025, 2051, 2050
3815, 2025, 2026, 2051
3816, 2026, 2052, 2051
3817, 2026, 2027, 2052
3818, 2027, 2053, 2052
3819, 2027, 2028, 2053
3820, 2028, 2054, 2053
3821, 2028, 2029, 2054
3822, 2029, 2055, 2054
3823, 2029, 2030, 2055
3824, 2030, 2056, 2055
3825, 2030, 2031, 2056
3826, 2031, 2057, 2056
3827, 2031, 2032, 2057
3828, 2032, 2058, 2057
3829, 2032, 2033, 2058
3830, 2033, 2059, 2058
3831, 2033, 2034, 2059
3832, 2034, 2060, 2059
3833, 2034, 2035, 2060
3834, 2035, 2061, 2060
3835, 2035, 2036, 2061
3836, 2036, 2062, 2061
3837, 2036, 2037, 2062
3838, 2037, 2063, 2062
3839, 2037, 2038, 2063
3840, 2038, 2064, 2063
3841, 2038, 2039, 2064
3842, 2039, 2065, 2064
3843, 2039, 2040, 2065
3844, 2040, 2066, 2065
3845, 2040, 2041, 2066
3846, 2041, 2067, 2066
3847, 2041, 2042, 2067
3848, 2042, 2068, 2067
3849, 2042, 2043, 2068
3850, 2043, 2069, 2068
3851, 2043, 2044, 2069
3852, 2044, 2070, 2069
3853, 2044, 2045, 2070
3854, 2045, 2071, 2070
3855, 2045, 2046, 2071
3856, 2046, 2072, 2071
3857, 2046, 2047, 2072
3858, 2047, 2073, 2072
3859, 2047,  227, 2073
3860,  227,  228, 2073
3861,   28, 2048,   29
3862, 2048, 2074,   29
3863, 2048, 2049, 2074
3864, 2049, 2075, 2074
3865, 2049, 2050, 2075
3866, 2050, 2076, 2075
3867, 2050, 2051, 2076
3868, 2051, 2077, 2076
3869, 2051, 2052, 2077
3870, 2052, 2078, 2077
3871, 2052, 2053, 2078
3872, 2053, 2079, 2078
3873, 2053, 2054, 2079
3874, 2054, 2080, 2079
3875, 2054, 2055, 2080
3876, 2055, 2081, 2080
3877, 2055, 2056, 2081
3878, 2056, 2082, 2081
3879, 2056, 2057, 2082
3880, 2057, 2083, 2082
3881, 2057, 2058, 2083
3882, 2058, 2084, 2083
3883, 2058, 2059, 2084
3884, 2059, 2085, 2084
3885, 2059, 2060, 2085
3886, 2060, 2086, 2085
3887, 2060, 2061, 2086
3888, 2061, 2087, 2086
3889, 2061, 2062, 2087
3890, 2062, 2088, 2087
3891, 2062, 2063, 2088
3892, 2063, 2089, 2088
3893, 2063, 2064, 2089
3894, 2064, 2090, 2089
3895, 2064, 2065, 2090
3896, 2065, 2091, 2090
3897, 2065, 2066, 2091
3898, 2066, 2092, 2091
3899, 2066, 2067, 2092
3900, 2067, 2093, 2092
3901, 2067, 2068, 2093
3902, 2068, 2094, 2093
3903, 2068, 2069, 2094
3904, 2069, 2095, 2094
3905, 2069, 2070, 2095
3906, 2070, 2096, 2095
3907, 2070, 2071, 2096
3908, 2071, 2097, 2096
3909, 2071, 2072, 2097
3910, 2072, 2098, 2097
3911, 2072, 2073, 2098
3912, 2073, 2099, 2098
3913, 2073,  228, 2099
3914,  228,  229, 2099
3915,   29, 2074,   30
3916, 2074, 2100,   30
3917, 2074, 2075, 2100
3918, 2075, 2101, 2100
3919, 2075, 2076, 2101
3920, 2076, 2102, 2101
3921, 2076, 2077, 2102
3922, 2077, 2103, 2102
3923, 2077, 2078, 2103
3924, 2078, 2104, 2103
3925, 2078, 2079, 2104
3926, 2079, 2105, 2104
3927, 2079, 2080, 2105
3928, 2080, 2106, 2105
3929, 2080, 2081, 2106
3930, 2081, 2107, 2106
3931, 2081, 2082, 2107
3932, 2082, 2108, 2107
3933, 2082, 2083, 2108
3934, 2083, 2109, 2108
3935, 2083, 2084, 2109
3936, 2084, 2110, 2109
3937, 2084, 2085, 2110
3938, 2085, 2111, 2110
3939, 2085, 2086, 2111
3940, 2086, 2112, 2111
3941, 2086, 2087, 2112
3942, 2087, 2113, 2112
3943, 2087, 2088, 2113
3944, 2088, 2114, 2113
3945, 2088, 2089, 2114
3946, 2089, 2115, 2114
3947, 2089, 2090, 2115
3948, 2090, 2116, 2115
3949, 2090, 2091, 2116
3950, 2091, 2117, 2116
3951, 2091, 2092, 2117
3952, 2092, 2118, 2117
3953, 2092, 2093, 2118
3954, 2093, 2119, 2118
3955, 2093, 2094, 2119
3956, 2094, 2120, 2119
3957, 2094, 2095, 2120
3958, 2095, 2121, 2120
3959, 2095, 2096, 2121
3960, 2096, 2122, 2121
3961, 2096, 2097, 2122
3962, 2097, 2123, 2122
3963, 2097, 2098, 2123
3964, 2098, 2124, 2123
3965, 2098, 2099, 2124
3966, 2099, 2125, 2124
3967, 2099,  229, 2125
3968,  229,  230, 2125
3969,   30, 2100,   31
3970, 2100, 2126,   31
3971, 2100, 2101, 2126
3972, 2101, 2127, 2126
3973, 2101, 2102, 2127
3974, 2102, 2128, 2127
3975, 2102, 2103, 2128
3976, 2103, 2129, 2128
3977, 2103, 2104, 2129
3978, 2104, 2130, 2129
3979, 2104, 2105, 2130
3980, 2105, 2131, 2130
3981, 2105, 2106, 2131
3982, 2106, 2132, 2131
3983, 2106, 2107, 2132
3984, 2107, 2133, 2132
3985, 2107, 2108, 2133
3986, 2108, 2134, 2133
3987, 2108, 2109, 2134
3988, 2109, 2135, 2134
3989, 2109, 2110, 2135
3990, 2110, 2136, 2135
3991, 2110, 2111, 2136
3992, 2111, 2137, 2136
3993, 2111, 2112, 2137
3994, 2112, 2138, 2137
3995, 2112, 2113, 2138
3996, 2113, 2139, 2138
3997, 2113, 2114, 2139
3998, 2114, 2140, 2139
3999, 2114, 2115, 2140
4000, 2115, 2141, 2140
4001, 2115, 2116, 2141
4002, 2116, 2142, 2141
4003, 2116, 2117, 2142
4004, 2117, 2143, 2142
4005, 2117, 2118, 2143
4006, 2118, 2144, 2143
4007, 2118, 2119, 2144
4008, 2119, 2145, 2144
4009, 2119, 2120, 2145
4010, 2120, 2146, 2145
4011, 2120, 2121, 2146
4012, 2121, 2147, 2146
4013, 2121, 2122, 2147
4014, 2122, 2148, 2147
4015, 2122, 2123, 2148
4016, 2123, 2149, 2148
4017, 2123, 2124, 2149
4018, 2124, 2150, 2149
4019, 2124, 2125, 2150
4020, 2125, 2151, 2150
4021, 2125,  230, 2151
4022,  230,  231, 2151
4023,   31, 2126,   32
4024, 2126, 2152,   32
4025, 2126, 2127, 2152
4026, 2127, 2153, 2152
4027, 2127, 2128, 2153
4028, 2128, 2154, 2153
4029, 2128, 2129, 2154
4030, 2129, 2155, 2154
4031, 2129, 2130, 2155
4032, 2130, 2156, 2155
4033, 2130, 2131, 2156
4034, 2131, 2157, 2156
4035, 2131, 2132, 2157
4036, 2132, 2158, 2157
4037, 2132, 2133, 2158
4038, 2133, 2159, 2158
4039, 2133, 2134, 2159
4040, 2134, 2160, 2159
4041, 2134, 2135, 2160
4042, 2135, 2161, 2160
4043, 2135, 2136, 2161
4044, 2136, 2162, 2161
4045, 2136, 2137, 2162
4046, 2137, 2163, 2162
4047, 2137, 2138, 2163
4048, 2138, 2164, 2163
4049, 2138, 2139, 2164
4050, 2139, 2165, 2164
4051, 2139, 2140, 2165
4052, 2140, 2166, 2165
4053, 2140, 2141, 2166
4054, 2141, 2167, 2166
4055, 2141, 2142, 2167
4056, 2142, 2168, 2167
4057, 2142, 2143, 2168
4058, 2143, 2169, 2168
4059, 2143, 2144, 2169
4060, 2144, 2170, 2169
4061, 2144, 2145, 2170
4062, 2145, 2171, 2170
4063, 2145, 2146, 2171
4064, 2146, 2172, 2171
4065, 2146, 2147, 2172
4066, 2147, 2173, 2172
4067, 2147, 2148, 2173
4068, 2148, 2174, 2173
4069, 2148, 2149, 2174
4070, 2149, 2175, 2174
4071, 2149, 2150, 2175
4072, 2150, 2176, 2175
4073, 2150, 2151, 2176
4074, 2151, 2177, 2176
4075, 2151,  231, 2177
4076,  231,  232, 2177
4077,   32, 2152,   33
4078, 2152, 2178,   33
4079, 2152, 2153, 2178
4080, 2153, 2179, 2178
4081, 2153, 2154, 2179
4082, 2154, 2180, 2179
4083, 2154, 2155, 2180
4084, 2155, 2181, 2180
4085, 2155, 2156, 2181
4086, 2156, 2182, 2181
4087, 2156, 2157, 2182
4088, 2157, 2183, 2182
4089, 2157, 2158, 2183
4090, 2158, 2184, 2183
4091, 2158, 2159, 2184
4092, 2159, 2185, 2184
4093, 2159, 2160, 2185
4094, 2160, 2186, 2185
4095, 2160, 2161, 2186
4096, 2161, 2187, 2186
4097, 2161, 2162, 2187
4098, 2162, 2188, 2187
4099, 2162, 2163, 2188
4100, 2163, 2189, 2188
4101, 2163, 2164, 2189
4102, 2164, 2190, 2189
4103, 2164, 2165, 2190
4104, 2165, 2191, 2190
4105, 2165, 2166, 2191
4106, 2166, 2192, 2191
4107, 2166, 2167, 2192
4108, 2167, 2193, 2192
4109, 2167, 2168, 2193
4110, 2168, 2194, 2193
4111, 2168, 2169, 2194
4112, 2169, 2195, 2194
4113, 2169, 2170, 2195
4114, 2170, 2196, 2195
4115, 2170, 2171, 2196
4116, 2171, 2197, 2196
4117, 2171, 2172, 2197
4118, 2172, 2198, 2197
4119, 2172, 2173, 2198
4120, 2173, 2199, 2198
4121, 2173, 2174, 2199
4122, 2174, 2200, 2199
4123, 2174, 2175, 2200
4124, 2175, 2201, 2200
4125, 2175, 2176, 2201
4126, 2176, 2202, 2201
4127, 2176, 2177, 2202
4128, 2177, 2203, 2202
4129, 2177,  232, 2203
4130,  232,  233, 2203
4131,   33, 2178,   34
4132, 2178, 2204,   34
4133, 2178, 2179, 2204
4134, 2179, 2205, 2204
4135, 2179, 2180, 2205
4136, 2180, 2206, 2205
4137, 2180, 2181, 2206
4138, 2181, 2207, 2206
4139, 2181, 2182, 2207
4140, 2182, 2208, 2207
4141, 2182, 2183, 2208
4142, 2183, 2209, 2208
4143, 2183, 2184, 2209
4144, 2184, 2210, 2209
4145, 2184, 2185, 2210
4146, 2185, 2211, 2210
4147, 2185, 2186, 2211
4148, 2186, 2212, 2211
4149, 2186, 2187, 2212
4150, 2187, 2213, 2212
4151, 2187, 2188, 2213
4152, 2188, 2214, 2213
4153, 2188, 2189, 2214
4154, 2189, 2215, 2214
4155, 2189, 2190, 2215
4156, 2190, 2216, 2215
4157, 2190, 2191, 2216
4158, 2191, 2217, 2216
4159, 2191, 2192, 2217
4160, 2192, 2218, 2217
4161, 2192, 2193, 2218
4162, 2193, 2219, 2218
4163, 2193, 2194, 2219
4164, 2194, 2220, 2219
4165, 2194, 2195, 2220
4166, 2195, 2221, 2220
4167, 2195, 2196, 2221
4168, 2196, 2222, 2221
4169, 2196, 2197, 2222
4170, 2197, 2223, 2222
4171, 2197, 2198, 2223
4172, 2198, 2224, 2223
4173, 2198, 2199, 2224
4174, 2199, 2225, 2224
4175, 2199, 2200, 2225
4176, 2200, 2226, 2225
4177, 2200, 2201, 2226
4178, 2201, 2227, 2226
4179, 2201, 2202, 2227
4180, 2202, 2228, 2227
4181, 2202, 2203, 2228
4182, 2203, 2229, 2228
4183, 2203,  233, 2229
4184,  233,  234, 2229
4185,   34, 2204,   35
4186, 2204, 2230,   35
4187, 2204, 2205, 2230
4188, 2205, 2231, 2230
4189, 2205, 2206, 2231
4190, 2206, 2232, 2231
4191, 2206, 2207, 2232
4192, 2207, 2233, 2232
4193, 2207, 2208, 2233
4194, 2208, 2234, 2233
4195, 2208, 2209, 2234
4196, 2209, 2235, 2234
4197, 2209, 2210, 2235
4198, 2210, 2236, 2235
4199, 2210, 2211, 2236
4200, 2211, 2237, 2236
4201, 2211, 2212, 2237
4202, 2212, 2238, 2237
4203, 2212, 2213, 2238
4204, 2213, 2239, 2238
4205, 2213, 2214, 2239
4206, 2214, 2240, 2239
4207, 2214, 2215, 2240
4208, 2215, 2241, 2240
4209, 2215, 2216, 2241
4210, 2216, 2242, 2241
4211, 2216, 2217, 2242
4212, 2217, 2243, 2242
4213, 2217, 2218, 2243
4214, 2218, 2244, 2243
4215, 2218, 2219, 2244
4216, 2219, 2245, 2244
4217, 2219, 2220, 2245
4218, 2220, 2246, 2245
4219, 2220, 2221, 2246
4220, 2221, 2247, 2246
4221, 2221, 2222, 2247
4222, 2222, 2248, 2247
4223, 2222, 2223, 2248
4224, 2223, 2249, 2248
4225, 2223, 2224, 2249
4226, 2224, 2250, 2249
4227, 2224, 2225, 2250
4228, 2225, 2251, 2250
4229, 2225, 2226, 2251
4230, 2226, 2252, 2251
4231, 2226, 2227, 2252
4232, 2227, 2253, 2252
4233, 2227, 2228, 2253
4234, 2228, 2254, 2253
4235, 2228, 2229, 2254
4236, 2229, 2255, 2254
4237, 2229,  234, 2255
4238,  234,  235, 2255
4239,   35, 2230,   36
4240, 2230, 2256,   36
4241, 2230, 2231, 2256
4242, 2231, 2257, 2256
4243, 2231, 2232, 2257
4244, 2232, 2258, 2257
4245, 2232, 2233, 2258
4246, 2233, 2259, 2258
4247, 2233, 2234, 2259
4248, 2234, 2260, 2259
4249, 2234, 2235, 2260
4250, 2235, 2261, 2260
4251, 2235, 2236, 2261
4252, 2236, 2262, 2261
4253, 2236, 2237, 2262
4254, 2237, 2263, 2262
4255, 2237, 2238, 2263
4256, 2238, 2264, 2263
4257, 2238, 2239, 2264
4258, 2239, 2265, 2264
4259, 2239, 2240, 2265
4260, 2240, 2266, 2265
4261, 2240, 2241, 2266
4262, 2241, 2267, 2266
4263, 2241, 2242, 2267
4264, 2242, 2268, 2267
4265, 2242, 2243, 2268
4266, 2243, 2269, 2268
4267, 2243, 2244, 2269
4268, 2244, 2270, 2269
4269, 2244, 2245, 2270
4270, 2245, 2271, 2270
4271, 2245, 2246, 2271
4272, 2246, 2272, 2271
4273, 2246, 2247, 2272
4274, 2247, 2273, 2272
4275, 2247, 2248, 2273
4276, 2248, 2274, 2273
4277, 2248, 2249, 2274
4278, 2249, 2275, 2274
4279, 2249, 2250, 2275
4280, 2250, 2276, 2275
4281, 2250, 2251, 2276
4282, 2251, 2277, 2276
4283, 2251, 2252, 2277
4284, 2252, 2278, 2277
4285, 2252, 2253, 2278
4286, 2253, 2279, 2278
4287, 2253, 2254, 2279
4288, 2254, 2280, 2279
4289, 2254, 2255, 2280
4290, 2255, 2281, 2280
4291, 2255,  235, 2281
4292,  235,  236, 2281
4293,   36, 2256,   37
4294, 2256, 2282,   37
4295, 2256, 2257, 2282
4296, 2257, 2283, 2282
4297, 2257, 2258, 2283
4298, 2258, 2284, 2283
4299, 2258, 2259, 2284
4300, 2259, 2285, 2284
4301, 2259, 2260, 2285
4302, 2260, 2286, 2285
4303, 2260, 2261, 2286
4304, 2261, 2287, 2286
4305, 2261, 2262, 2287
4306, 2262, 2288, 2287
4307, 2262, 2263, 2288
4308, 2263, 2289, 2288
4309, 2263, 2264, 2289
4310, 2264, 2290, 2289
4311, 2264, 2265, 2290
4312, 2265, 2291, 2290
4313, 2265, 2266, 2291
4314, 2266, 2292, 2291
4315, 2266, 2267, 2292
4316, 2267, 2293, 2292
4317, 2267, 2268, 2293
4318, 2268, 2294, 2293
4319, 2268, 2269, 2294
4320, 2269, 2295, 2294
4321, 2269, 2270, 2295
4322, 2270, 2296, 2295
4323, 2270, 2271, 2296
4324, 2271, 2297, 2296
4325, 2271, 2272, 2297
4326, 2272, 2298, 2297
4327, 2272, 2273, 2298
4328, 2273, 2299, 2298
4329, 2273, 2274, 2299
4330, 2274, 2300, 2299
4331, 2274, 2275, 2300
4332, 2275, 2301, 2300
4333, 2275, 2276, 2301
4334, 2276, 2302, 2301
4335, 2276, 2277, 2302
4336, 2277, 2303, 2302
4337, 2277, 2278, 2303
4338, 2278, 2304, 2303
4339, 2278, 2279, 2304
4340, 2279, 2305, 2304
4341, 2279, 2280, 2305
4342, 2280, 2306, 2305
4343, 2280, 2281, 2306
4344, 2281, 2307, 2306
4345, 2281,  236, 2307
4346,  236,  237, 2307
4347,   37, 2282,   38
4348, 2282, 2308,   38
4349, 2282, 2283, 2308
4350, 2283, 2309, 2308
4351, 2283, 2284, 2309
4352, 2284, 2310, 2309
4353, 2284, 2285, 2310
4354, 2285, 2311, 2310
4355, 2285, 2286, 2311
4356, 2286, 2312, 2311
4357, 2286, 2287, 2312
4358, 2287, 2313, 2312
4359, 2287, 2288, 2313
4360, 2288, 2314, 2313
4361, 2288, 2289, 2314
4362, 2289, 2315, 2314
4363, 2289, 2290, 2315
4364, 2290, 2316, 2315
4365, 2290, 2291, 2316
4366, 2291, 2317, 2316
4367, 2291, 2292, 2317
4368, 2292, 2318, 2317
4369, 2292, 2293, 2318
4370, 2293, 2319, 2318
4371, 2293, 2294, 2319
4372, 2294, 2320, 2319
4373, 2294, 2295, 2320
4374, 2295, 2321, 2320
4375, 2295, 2296, 2321
4376, 2296, 2322, 2321
4377, 2296, 2297, 2322
4378, 2297, 2323, 2322
4379, 2297, 2298, 2323
4380, 2298, 2324, 2323
4381, 2298, 2299, 2324
4382, 2299, 2325, 2324
4383, 2299, 2300, 2325
4384, 2300, 2326, 2325
4385, 2300, 2301, 2326
4386, 2301, 2327, 2326
4387, 2301, 2302, 2327
4388, 2302, 2328, 2327
4389, 2302, 2303, 2328
4390, 2303, 2329, 2328
4391, 2303, 2304, 2329
4392, 2304, 2330, 2329
4393, 2304, 2305, 2330
4394, 2305, 2331, 2330
4395, 2305, 2306, 2331
4396, 2306, 2332, 2331
4397, 2306, 2307, 2332
4398, 2307, 2333, 2332
4399, 2307,  237, 2333
4400,  237,  238, 2333
4401,   38, 2308,   39
4402, 2308, 2334,   39
4403, 2308, 2309, 2334
4404, 2309, 2335, 2334
4405, 2309, 2310, 2335
4406, 2310, 2336, 2335
4407, 2310, 2311, 2336
4408, 2311, 2337, 2336
4409, 2311, 2312, 2337
4410, 2312, 2338, 2337
4411, 2312, 2313, 2338
4412, 2313, 2339, 2338
4413, 2313, 2314, 2339
4414, 2314, 2340, 2339
4415, 2314, 2315, 2340
4416, 2315, 2341, 2340
4417, 2315, 2316, 2341
4418, 2316, 2342, 2341
4419, 2316, 2317, 2342
4420, 2317, 2343, 2342
4421, 2317, 2318, 2343
4422, 2318, 2344, 2343
4423, 2318, 2319, 2344
4424, 2319, 2345, 2344
4425, 2319, 2320, 2345
4426, 2320, 2346, 2345
4427, 2320, 2321, 2346
4428, 2321, 2347, 2346
4429, 2321, 2322, 2347
4430, 2322, 2348, 2347
4431, 2322, 2323, 2348
4432, 2323, 2349, 2348
4433, 2323, 2324, 2349
4434, 2324, 2350, 2349
4435, 2324, 2325, 2350
4436, 2325, 2351, 2350
4437, 2325, 2326, 2351
4438, 2326, 2352, 2351
4439, 2326, 2327, 2352
4440, 2327, 2353, 2352
4441, 2327, 2328, 2353
4442, 2328, 2354, 2353
4443, 2328, 2329, 2354
4444, 2329, 2355, 2354
4445, 2329, 2330, 2355
4446, 2330, 2356, 2355
4447, 2330, 2331, 2356
4448, 2331, 2357, 2356
4449, 2331, 2332, 2357
4450, 2332, 2358, 2357
4451, 2332, 2333, 2358
4452, 2333, 2359, 2358
4453, 2333,  238, 2359
4454,  238,  239, 2359
4455,   39, 2334,    2
4456, 2334,  265,    2
4457, 2334, 2335,  265
4458, 2335,  264,  265
4459, 2335, 2336,  264
4460, 2336,  263,  264
4461, 2336, 2337,  263
4462, 2337,  262,  263
4463, 2337, 2338,  262
4464, 2338,  261,  262
4465, 2338, 2339,  261
4466, 2339,  260,  261
4467, 2339, 2340,  260
4468, 2340,  259,  260
4469, 2340, 2341,  259
4470, 2341,  258,  259
4471, 2341, 2342,  258
4472, 2342,  257,  258
4473, 2342, 2343,  257
4474, 2343,  256,  257
4475, 2343, 2344,  256
4476, 2344,  255,  256
4477, 2344, 2345,  255
4478, 2345,  254,  255
4479, 2345, 2346,  254
4480, 2346,  253,  254
4481, 2346, 2347,  253
4482, 2347,  252,  253
4483, 2347, 2348,  252
4484, 2348,  251,  252
4485, 2348, 2349,  251
4486, 2349,  250,  251
4487, 2349, 2350,  250
4488, 2350,  249,  250
4489, 2350, 2351,  249
4490, 2351,  248,  249
4491, 2351, 2352,  248
4492, 2352,  247,  248
4493, 2352, 2353,  247
4494, 2353,  246,  247
4495, 2353, 2354,  246
4496, 2354,  245,  246
4497, 2354, 2355,  245
4498, 2355,  244,  245
4499, 2355, 2356,  244
4500, 2356,  243,  244
4501, 2356, 2357,  243
4502, 2357,  242,  243
4503, 2357, 2358,  242
4504, 2358,  241,  242
4505, 2358, 2359,  241
4506, 2359,  240,  241
4507, 2359,  239,  240
4508,  239,    8,  240
*Nset, nset=Set-1, generate
    1,  2359,     1
*Elset, elset=Set-1, generate
    1,  4508,     1
** Section: Section-1
*Solid Section, elset=Set-1, material=Material-1
,
*End Part
**  
**
** ASSEMBLY
**
*Assembly, name=Assembly
**  
*Instance, name=Part-1-1, part=Part-1
*End Instance
**  
*Nset, nset=Set-1, instance=Part-1-1
   3,   4,  74,  75,  76,  77,  78,  79,  80,  81,  82,  83,  84,  85,  86,  87
  88,  89,  90,  91,  92,  93,  94,  95,  96,  97,  98,  99, 100, 101, 102, 103
 104,
*Elset, elset=Set-1, instance=Part-1-1, generate
 2178,  2240,     2
*Nset, nset=Set-2, instance=Part-1-1
   5,   7,   8, 200, 201, 202, 203, 204, 205, 206, 207, 208, 209, 210, 211, 212
 213, 214, 215, 216, 217, 218, 219, 220, 221, 222, 223, 224, 225, 226, 227, 228
 229, 230, 231, 232, 233, 234, 235, 236, 237, 238, 239
*Elset, elset=Set-2, instance=Part-1-1
 2241, 2295, 2349, 2403, 2457, 2511, 2565, 2619, 2673, 2727, 2834, 2888, 2942, 2996, 3050, 3104
 3158, 3212, 3266, 3320, 3374, 3428, 3482, 3536, 3590, 3644, 3698, 3752, 3806, 3860, 3914, 3968
 4022, 4076, 4130, 4184, 4238, 4292, 4346, 4400, 4454, 4508
*Elset, elset=_Surf-1_S2, internal, instance=Part-1-1, generate
 2728,  2780,     2
*Surface, type=ELEMENT, name=Surf-1
_Surf-1_S2, S2
*End Assembly
** 
** MATERIALS
** 
*Material, name=Material-1
*Elastic
200000., 0.3
** ----------------------------------------------------------------
** 
** STEP: Step-1
** 
*Step, name=Step-1, nlgeom=NO
*Static
1., 1., 1e-05, 1.
** 
** BOUNDARY CONDITIONS
** 
** Name: BC-1 Type: Displacement/Rotation
*Boundary
Set-1, 2, 2
** Name: BC-2 Type: Displacement/Rotation
*Boundary
Set-2, 1, 1
** 
** LOADS
** 
** Name: Load-1   Type: Pressure
*Dsload
Surf-1, P, -1.
** 
** OUTPUT REQUESTS
** 
*Restart, write, frequency=0
** 
** FIELD OUTPUT: F-Output-1
** 
*Output, field, variable=PRESELECT
** 
** HISTORY OUTPUT: H-Output-1
** 
*Output, history, variable=PRESELECT
*End Step
