*Heading
** Job name: T4 Model name: 3dtet
** Generated by: Abaqus/CAE 6.14-1
*Preprint, echo=NO, model=NO, history=NO, contact=NO
**
** PARTS
**
*Part, name=Part-1
*Node
      1,           0.,          7.5,           5.
      2,          10.,          10.,           5.
      3,          10.,          10.,           0.
      4,           0.,          7.5,           0.
      5,   3.53553391,   3.53553391,           0.
      6,           0.,           5.,           0.
      7,           0.,           5.,           5.
      8,   3.53553391,   3.53553391,           5.
      9,          10.,          20.,           0.
     10,          10.,          20.,           5.
     11,           0.,          10.,           0.
     12,           0.,          20.,           0.
     13,           0.,          20.,           5.
     14,           0.,          10.,           5.
     15,          10.,           0.,           5.
     16,          10.,           0.,           0.
     17,           5.,           0.,           5.
     18,           5.,           0.,           0.
     19,           2.,           8.,           5.
     20,           4.,          8.5,           5.
     21,           6.,           9.,           5.
     22,           8.,          9.5,           5.
     23,          10.,          10.,   3.33333325
     24,          10.,          10.,   1.66666663
     25,           8.,          9.5,           0.
     26,           6.,           9.,           0.
     27,           4.,          8.5,           0.
     28,           2.,           8.,           0.
     29,           0.,          7.5,   1.66666663
     30,           0.,          7.5,   3.33333325
     31,   9.64086342,   9.64086342,           0.
     32,   9.28172588,   9.28172588,           0.
     33,    8.9225893,    8.9225893,           0.
     34,   8.56345177,   8.56345177,           0.
     35,   8.20431519,   8.20431519,           0.
     36,   7.84517813,   7.84517813,           0.
     37,   7.48604107,   7.48604107,           0.
     38,   7.12690401,   7.12690401,           0.
     39,   6.76776695,   6.76776695,           0.
     40,   6.40862989,   6.40862989,           0.
     41,   6.04949284,   6.04949284,           0.
     42,   5.69035578,   5.69035578,           0.
     43,   5.33121872,   5.33121872,           0.
     44,   4.97208214,   4.97208214,           0.
     45,   4.61294508,   4.61294508,           0.
     46,   4.25380802,   4.25380802,           0.
     47,   3.89467096,   3.89467096,           0.
     48,   3.17196631,   3.86505222,           0.
     49,    2.7778511,   4.15734816,           0.
     50,   2.35698366,   4.40960646,           0.
     51,   1.91341722,   4.61939764,           0.
     52,   1.45142341,   4.78470182,           0.
     53,  0.975451589,   4.90392637,           0.
     54,  0.490085691,   4.97592354,           0.
     55,           0.,          5.5,           0.
     56,           0.,           6.,           0.
     57,           0.,          6.5,           0.
     58,           0.,           7.,           0.
     59,           0.,           5.,   1.66666663
     60,           0.,           5.,   3.33333325
     61,           0.,          5.5,           5.
     62,           0.,           6.,           5.
     63,           0.,          6.5,           5.
     64,           0.,           7.,           5.
     65,   3.89467096,   3.89467096,           5.
     66,   4.25380802,   4.25380802,           5.
     67,   4.61294508,   4.61294508,           5.
     68,   4.97208214,   4.97208214,           5.
     69,   5.33121872,   5.33121872,           5.
     70,   5.69035578,   5.69035578,           5.
     71,   6.04949284,   6.04949284,           5.
     72,   6.40862989,   6.40862989,           5.
     73,   6.76776695,   6.76776695,           5.
     74,   7.12690401,   7.12690401,           5.
     75,   7.48604107,   7.48604107,           5.
     76,   7.84517813,   7.84517813,           5.
     77,   8.20431519,   8.20431519,           5.
     78,   8.56345177,   8.56345177,           5.
     79,    8.9225893,    8.9225893,           5.
     80,   9.28172588,   9.28172588,           5.
     81,   9.64086342,   9.64086342,           5.
     82,  0.490085691,   4.97592354,           5.
     83,  0.975451589,   4.90392637,           5.
     84,   1.45142341,   4.78470182,           5.
     85,   1.91341722,   4.61939764,           5.
     86,   2.35698366,   4.40960646,           5.
     87,    2.7778511,   4.15734816,           5.
     88,   3.17196631,   3.86505222,           5.
     89,   3.53553391,   3.53553391,   1.66666663
     90,   3.53553391,   3.53553391,   3.33333325
     91,          10.,          11.,           0.
     92,          10.,          12.,           0.
     93,          10.,          13.,           0.
     94,          10.,          14.,           0.
     95,          10.,          15.,           0.
     96,          10.,          16.,           0.
     97,          10.,          17.,           0.
     98,          10.,          18.,           0.
     99,          10.,          19.,           0.
    100,          10.,          20.,   1.66666663
    101,          10.,          20.,   3.33333325
    102,          10.,          19.,           5.
    103,          10.,          18.,           5.
    104,          10.,          17.,           5.
    105,          10.,          16.,           5.
    106,          10.,          15.,           5.
    107,          10.,          14.,           5.
    108,          10.,          13.,           5.
    109,          10.,          12.,           5.
    110,          10.,          11.,           5.
    111,           0.,          11.,           0.
    112,           0.,          12.,           0.
    113,           0.,          13.,           0.
    114,           0.,          14.,           0.
    115,           0.,          15.,           0.
    116,           0.,          16.,           0.
    117,           0.,          17.,           0.
    118,           0.,          18.,           0.
    119,           0.,          19.,           0.
    120,           2.,          20.,           0.
    121,           4.,          20.,           0.
    122,           6.,          20.,           0.
    123,           8.,          20.,           0.
    124,           2.,          20.,           5.
    125,           4.,          20.,           5.
    126,           6.,          20.,           5.
    127,           8.,          20.,           5.
    128,           0.,          20.,   1.66666663
    129,           0.,          20.,   3.33333325
    130,           0.,          19.,           5.
    131,           0.,          18.,           5.
    132,           0.,          17.,           5.
    133,           0.,          16.,           5.
    134,           0.,          15.,           5.
    135,           0.,          14.,           5.
    136,           0.,          13.,           5.
    137,           0.,          12.,           5.
    138,           0.,          11.,           5.
    139,          10.,          9.5,           5.
    140,          10.,           9.,           5.
    141,          10.,          8.5,           5.
    142,          10.,           8.,           5.
    143,          10.,          7.5,           5.
    144,          10.,           7.,           5.
    145,          10.,          6.5,           5.
    146,          10.,           6.,           5.
    147,          10.,          5.5,           5.
    148,          10.,           5.,           5.
    149,          10.,          4.5,           5.
    150,          10.,           4.,           5.
    151,          10.,          3.5,           5.
    152,          10.,           3.,           5.
    153,          10.,          2.5,           5.
    154,          10.,           2.,           5.
    155,          10.,          1.5,           5.
    156,          10.,           1.,           5.
    157,          10.,          0.5,           5.
    158,          10.,           0.,   3.33333325
    159,          10.,           0.,   1.66666663
    160,          10.,          0.5,           0.
    161,          10.,           1.,           0.
    162,          10.,          1.5,           0.
    163,          10.,           2.,           0.
    164,          10.,          2.5,           0.
    165,          10.,           3.,           0.
    166,          10.,          3.5,           0.
    167,          10.,           4.,           0.
    168,          10.,          4.5,           0.
    169,          10.,           5.,           0.
    170,          10.,          5.5,           0.
    171,          10.,           6.,           0.
    172,          10.,          6.5,           0.
    173,          10.,           7.,           0.
    174,          10.,          7.5,           0.
    175,          10.,           8.,           0.
    176,          10.,          8.5,           0.
    177,          10.,           9.,           0.
    178,          10.,          9.5,           0.
    179,   3.86505222,   3.17196631,           5.
    180,   4.15734816,    2.7778511,           5.
    181,   4.40960646,   2.35698366,           5.
    182,   4.61939764,   1.91341722,           5.
    183,   4.78470182,   1.45142341,           5.
    184,   4.90392637,  0.975451589,           5.
    185,   4.97592354,  0.490085691,           5.
    186,          5.5,           0.,           5.
    187,           6.,           0.,           5.
    188,          6.5,           0.,           5.
    189,           7.,           0.,           5.
    190,          7.5,           0.,           5.
    191,           8.,           0.,           5.
    192,          8.5,           0.,           5.
    193,           9.,           0.,           5.
    194,          9.5,           0.,           5.
    195,           5.,           0.,   3.33333325
    196,           5.,           0.,   1.66666663
    197,          5.5,           0.,           0.
    198,           6.,           0.,           0.
    199,          6.5,           0.,           0.
    200,           7.,           0.,           0.
    201,          7.5,           0.,           0.
    202,           8.,           0.,           0.
    203,          8.5,           0.,           0.
    204,           9.,           0.,           0.
    205,          9.5,           0.,           0.
    206,   4.97592354,  0.490085691,           0.
    207,   4.90392637,  0.975451589,           0.
    208,   4.78470182,   1.45142341,           0.
    209,   4.61939764,   1.91341722,           0.
    210,   4.40960646,   2.35698366,           0.
    211,   4.15734816,    2.7778511,           0.
    212,   3.86505222,   3.17196631,           0.
    213,           2.,           8.,   3.33333325
    214,           4.,          8.5,   3.33333325
    215,           6.,           9.,   3.33333325
    216,           8.,          9.5,   3.33333325
    217,           2.,           8.,   1.66666663
    218,           4.,          8.5,   1.66666663
    219,           6.,           9.,   1.66666663
    220,           8.,          9.5,   1.66666663
    221,   2.81722426,   4.67551327,           0.
    222,   1.83781791,   5.14267349,           0.
    223,   2.34097767,   4.94609642,           0.
    224,  0.882508159,   5.32219219,           0.
    225,   3.16842937,   4.38696814,           0.
    226,   1.34190404,   5.28185177,           0.
    227,  0.588131487,   6.27454996,           0.
    228,  0.644291401,   6.99701023,           0.
    229,   7.62253952,   8.01462555,           0.
    230,   6.97981739,   7.55905771,           0.
    231,   5.73342991,   6.69349289,           0.
    232,   5.44757462,    6.2010417,           0.
    233,   5.08359003,   5.85242891,           0.
    234,   4.49287462,   5.15024185,           0.
    235,   4.06114721,   4.76887035,           0.
    236,   6.29925966,   7.17162752,           0.
    237,   4.87206173,   5.41360188,           0.
    238,   3.66028261,   4.34458447,           0.
    239,   3.40858293,   4.90032053,           0.
    240,  0.448634386,   5.56501865,           0.
    241,   1.29964113,   6.70796013,           0.
    242,   8.07994175,   8.60470295,           0.
    243,   5.51408339,   7.66968346,           0.
    244,   4.46816635,   5.75249434,           0.
    245,   3.92840672,   5.35191154,           0.
    246,   2.29270983,   5.55771399,           0.
    247,   1.74764287,   5.65009594,           0.
    248,   2.85880876,   5.25597143,           0.
    249,   1.19921851,   5.88392067,           0.
    250,   7.17863321,   8.43803501,           0.
    251,   6.39435863,   7.96768045,           0.
    252,   2.93604493,   5.94478035,           0.
    253,   3.37957072,    5.4978447,           0.
    254,   4.65648365,   6.70438194,           0.
    255,   3.76794791,   6.03018141,           0.
    256,   2.10203886,   6.38202095,           0.
    257,   3.24375248,   6.92689419,           0.
    258,           0.,           7.,   3.33333325
    259,           0.,           7.,   1.66666663
    260,           0.,          6.5,   3.33333325
    261,           0.,          6.5,   1.66666663
    262,           0.,           6.,   3.33333325
    263,           0.,           6.,   1.66666663
    264,           0.,          5.5,   3.33333325
    265,           0.,          5.5,   1.66666663
    266,   2.78838396,   4.69493675,           5.
    267,   3.15797758,   4.39147329,           5.
    268,  0.885099769,   5.31226778,           5.
    269,   1.78380632,    5.0703063,           5.
    270,    1.3632338,    5.2651391,           5.
    271,   2.26948619,   4.97946072,           5.
    272,  0.613563538,   6.24244261,           5.
    273,  0.671001136,    6.9677825,           5.
    274,   4.47267437,    5.1257782,           5.
    275,   5.12986469,   5.85710716,           5.
    276,   5.56987953,   6.21893835,           5.
    277,    6.0296464,   6.77277803,           5.
    278,   6.74190044,   7.45405054,           5.
    279,   7.44284296,   8.07496452,           5.
    280,   7.99524403,   8.66807365,           5.
    281,   8.55260181,   8.98716831,           5.
    282,   4.05986881,    4.7464118,           5.
    283,   4.85828257,   5.41460609,           5.
    284,   3.65687919,   4.34211349,           5.
    285,  0.517139375,    5.6367178,           5.
    286,   1.43816376,   6.57873344,           5.
    287,   4.38932323,   5.82679033,           5.
    288,   4.94884396,   6.80475187,           5.
    289,   3.42617273,   4.92276192,           5.
    290,   1.99142277,    5.7517724,           5.
    291,   2.81994867,   5.37843657,           5.
    292,   1.13477051,   5.79784536,           5.
    293,    7.2120347,   8.68654156,           5.
    294,    5.7237463,   7.78687525,           5.
    295,   6.62410498,   8.20048618,           5.
    296,    3.5501864,   5.71707392,           5.
    297,   3.79617405,   6.71976519,           5.
    298,   2.26365542,   6.76009655,           5.
    299,    2.9021771,    6.2602272,           5.
    300,   3.97964501,   5.26776314,           5.
    301,   2.99240136,   7.24801779,           5.
    302,   3.89467096,   3.89467096,   1.66666663
    303,   3.89467096,   3.89467096,   3.33333325
    304,   4.25380802,   4.25380802,   1.66666663
    305,   4.25380802,   4.25380802,   3.33333325
    306,   4.61294508,   4.61294508,   1.66666663
    307,   4.61294508,   4.61294508,   3.33333325
    308,   4.97208214,   4.97208214,   1.66666663
    309,   4.97208214,   4.97208214,   3.33333325
    310,   5.33121872,   5.33121872,   1.66666663
    311,   5.33121872,   5.33121872,   3.33333325
    312,   5.69035578,   5.69035578,   1.66666663
    313,   5.69035578,   5.69035578,   3.33333325
    314,   6.04949284,   6.04949284,   1.66666663
    315,   6.04949284,   6.04949284,   3.33333325
    316,   6.40862989,   6.40862989,   1.66666663
    317,   6.40862989,   6.40862989,   3.33333325
    318,   6.76776695,   6.76776695,   1.66666663
    319,   6.76776695,   6.76776695,   3.33333325
    320,   7.12690401,   7.12690401,   1.66666663
    321,   7.12690401,   7.12690401,   3.33333325
    322,   7.48604107,   7.48604107,   1.66666663
    323,   7.48604107,   7.48604107,   3.33333325
    324,   7.84517813,   7.84517813,   1.66666663
    325,   7.84517813,   7.84517813,   3.33333325
    326,   8.20431519,   8.20431519,   1.66666663
    327,   8.20431519,   8.20431519,   3.33333325
    328,   8.56345177,   8.56345177,   1.66666663
    329,   8.56345177,   8.56345177,   3.33333325
    330,    8.9225893,    8.9225893,   1.66666663
    331,    8.9225893,    8.9225893,   3.33333325
    332,   9.28172588,   9.28172588,   1.66666663
    333,   9.28172588,   9.28172588,   3.33333325
    334,   9.64086342,   9.64086342,   1.66666663
    335,   9.64086342,   9.64086342,   3.33333325
    336,   3.17196631,   3.86505222,   1.66666663
    337,   3.17196631,   3.86505222,   3.33333325
    338,    2.7778511,   4.15734816,   1.66666663
    339,    2.7778511,   4.15734816,   3.33333325
    340,   2.35698366,   4.40960646,   1.66666663
    341,   2.35698366,   4.40960646,   3.33333325
    342,   1.91341722,   4.61939764,   1.66666663
    343,   1.91341722,   4.61939764,   3.33333325
    344,   1.45142341,   4.78470182,   1.66666663
    345,   1.45142341,   4.78470182,   3.33333325
    346,  0.975451589,   4.90392637,   1.66666663
    347,  0.975451589,   4.90392637,   3.33333325
    348,  0.490085691,   4.97592354,   1.66666663
    349,  0.490085691,   4.97592354,   3.33333325
    350,          10.,          11.,   3.33333325
    351,          10.,          11.,   1.66666663
    352,          10.,          12.,   3.33333325
    353,          10.,          12.,   1.66666663
    354,          10.,          13.,   3.33333325
    355,          10.,          13.,   1.66666663
    356,          10.,          14.,   3.33333325
    357,          10.,          14.,   1.66666663
    358,          10.,          15.,   3.33333325
    359,          10.,          15.,   1.66666663
    360,          10.,          16.,   3.33333325
    361,          10.,          16.,   1.66666663
    362,          10.,          17.,   3.33333325
    363,          10.,          17.,   1.66666663
    364,          10.,          18.,   3.33333325
    365,          10.,          18.,   1.66666663
    366,          10.,          19.,   3.33333325
    367,          10.,          19.,   1.66666663
    368,  0.905314326,   11.5162401,           0.
    369,   1.10481012,   10.4605236,           0.
    370,  0.892701745,   14.4710159,           0.
    371,  0.967575669,   15.4871378,           0.
    372,    1.0199405,   16.5560226,           0.
    373,   1.07731962,   17.6623898,           0.
    374,   1.07301164,   18.6478939,           0.
    375,   9.05522251,     14.62677,           0.
    376,   8.97372627,   13.5103722,           0.
    377,   8.94276047,   12.3556843,           0.
    378,   8.95850086,    11.266036,           0.
    379,   1.18640006,   12.6230545,           0.
    380,   1.91758037,   14.9004688,           0.
    381,   7.90929461,   14.1935291,           0.
    382,  0.760406494,   13.5840788,           0.
    383,   2.19279361,   17.2250843,           0.
    384,   9.03715134,   16.4005661,           0.
    385,    9.2451601,   15.5122375,           0.
    386,   2.05852962,   16.0156631,           0.
    387,   7.82208967,   12.8808565,           0.
    388,   2.30446029,   11.3786259,           0.
    389,    1.0978961,   9.12512589,           0.
    390,    8.9564476,   18.5355835,           0.
    391,   8.94395542,   17.4962921,           0.
    392,   3.04014921,   15.3506899,           0.
    393,   6.60812092,   13.5982389,           0.
    394,   3.30426359,   16.5489178,           0.
    395,   1.71446538,   13.8021164,           0.
    396,   2.41403985,   9.63195705,           0.
    397,   7.80406952,    18.179142,           0.
    398,   4.31459045,   15.6757555,           0.
    399,   7.87910891,   16.8535175,           0.
    400,   2.86167502,   14.2163477,           0.
    401,   3.61867571,   17.9828224,           0.
    402,   6.76342058,   14.9884825,           0.
    403,   6.62787533,   12.1123066,           0.
    404,   4.01146698,   10.2933149,           0.
    405,   6.42708158,   17.3564835,           0.
    406,    2.6593616,   12.9446907,           0.
    407,   4.76707983,   17.0086174,           0.
    408,   5.22051191,   14.4786654,           0.
    409,   5.29575109,   12.8360863,           0.
    410,   7.85347652,   11.4635458,           0.
    411,   2.32696676,   18.5863647,           0.
    412,    3.9729085,   13.5374365,           0.
    413,    6.7820363,   10.6510315,           0.
    414,   5.74492455,   15.9420185,           0.
    415,   6.98959208,   16.1348705,           0.
    416,   5.24881124,   18.5273132,           0.
    417,   3.94546294,   12.0282431,           0.
    418,   3.88196707,   14.6517792,           0.
    419,   8.12556458,   15.5299959,           0.
    420,   5.44376564,   11.1534967,           0.
    421,   6.69599247,   18.8125877,           0.
    422,           2.,          20.,   3.33333325
    423,           4.,          20.,   3.33333325
    424,           6.,          20.,   3.33333325
    425,           8.,          20.,   3.33333325
    426,           2.,          20.,   1.66666663
    427,           4.,          20.,   1.66666663
    428,           6.,          20.,   1.66666663
    429,           8.,          20.,   1.66666663
    430,   9.07812214,    14.507616,           5.
    431,   9.10456753,   16.5658836,           5.
    432,   9.07409191,   15.5223055,           5.
    433,   9.05522346,   13.5124493,           5.
    434,   9.01855946,   12.4445581,           5.
    435,   9.00068092,   11.3325443,           5.
    436,    1.2939347,   10.6843081,           5.
    437,  0.791982353,   11.6346188,           5.
    438,  0.878748715,    12.520874,           5.
    439,  0.897804201,   13.5080376,           5.
    440,  0.908558726,   14.4985218,           5.
    441,  0.935590863,   15.4904776,           5.
    442,  0.974637628,   16.5236359,           5.
    443,    1.0364809,   17.6283627,           5.
    444,   1.05027008,    18.632082,           5.
    445,   9.24718189,   17.4870739,           5.
    446,   1.73152947,   11.9407568,           5.
    447,   1.80411828,   13.9885406,           5.
    448,   8.96027851,    18.583744,           5.
    449,   8.12792683,   16.0528049,           5.
    450,   1.94545352,   15.9652081,           5.
    451,   1.84078586,   14.9287481,           5.
    452,   8.04542542,    12.992692,           5.
    453,   7.94606161,   11.6125221,           5.
    454,   1.81895471,   13.0024652,           5.
    455,   8.13457298,   14.0619516,           5.
    456,   8.19636536,   15.0313416,           5.
    457,    2.0812993,   17.1674194,           5.
    458,   1.17381334,   9.18364811,           5.
    459,   2.58216214,   14.4109421,           5.
    460,    7.4125495,   14.6143599,           5.
    461,   2.71415353,   13.5876684,           5.
    462,   2.79662013,   12.5023403,           5.
    463,   7.35462046,   15.4019728,           5.
    464,   2.83394098,   15.2963943,           5.
    465,   6.93139744,   12.4618092,           5.
    466,   3.05626488,   16.5020943,           5.
    467,   7.14832544,   13.7158632,           5.
    468,   2.49706841,    9.6756897,           5.
    469,    7.2745595,   18.3486042,           5.
    470,   6.21846676,   14.7555532,           5.
    471,   3.61684656,   14.3677483,           5.
    472,   3.62819076,    13.189558,           5.
    473,   3.95845652,   15.6850128,           5.
    474,   6.16525888,   13.3186121,           5.
    475,   6.86759281,   16.5136719,           5.
    476,   2.70574975,   11.2011871,           5.
    477,   6.59897423,   10.8695612,           5.
    478,   3.36959267,   17.9594879,           5.
    479,   4.89217043,   13.5195141,           5.
    480,   4.07054901,   11.9255629,           5.
    481,   8.26368427,   17.2586308,           5.
    482,   4.31489754,   17.0740299,           5.
    483,    5.6165576,     12.09793,           5.
    484,   3.66287255,   10.3589916,           5.
    485,   5.29713535,   16.1041908,           5.
    486,   4.79661512,    14.886404,           5.
    487,   5.73102617,   17.7617512,           5.
    488,   4.68310308,   18.5590534,           5.
    489,   2.25627375,    18.564558,           5.
    490,   4.99149227,   10.4586744,           5.
    491,           0.,          10.,   1.66666663
    492,           0.,          10.,   3.33333325
    493,           0.,          11.,   1.66666663
    494,           0.,          11.,   3.33333325
    495,           0.,          12.,   1.66666663
    496,           0.,          12.,   3.33333325
    497,           0.,          13.,   1.66666663
    498,           0.,          13.,   3.33333325
    499,           0.,          14.,   1.66666663
    500,           0.,          14.,   3.33333325
    501,           0.,          15.,   1.66666663
    502,           0.,          15.,   3.33333325
    503,           0.,          16.,   1.66666663
    504,           0.,          16.,   3.33333325
    505,           0.,          17.,   1.66666663
    506,           0.,          17.,   3.33333325
    507,           0.,          18.,   1.66666663
    508,           0.,          18.,   3.33333325
    509,           0.,          19.,   1.66666663
    510,           0.,          19.,   3.33333325
    511,          10.,          9.5,   1.66666663
    512,          10.,          9.5,   3.33333325
    513,          10.,           9.,   1.66666663
    514,          10.,           9.,   3.33333325
    515,          10.,          8.5,   1.66666663
    516,          10.,          8.5,   3.33333325
    517,          10.,           8.,   1.66666663
    518,          10.,           8.,   3.33333325
    519,          10.,          7.5,   1.66666663
    520,          10.,          7.5,   3.33333325
    521,          10.,           7.,   1.66666663
    522,          10.,           7.,   3.33333325
    523,          10.,          6.5,   1.66666663
    524,          10.,          6.5,   3.33333325
    525,          10.,           6.,   1.66666663
    526,          10.,           6.,   3.33333325
    527,          10.,          5.5,   1.66666663
    528,          10.,          5.5,   3.33333325
    529,          10.,           5.,   1.66666663
    530,          10.,           5.,   3.33333325
    531,          10.,          4.5,   1.66666663
    532,          10.,          4.5,   3.33333325
    533,          10.,           4.,   1.66666663
    534,          10.,           4.,   3.33333325
    535,          10.,          3.5,   1.66666663
    536,          10.,          3.5,   3.33333325
    537,          10.,           3.,   1.66666663
    538,          10.,           3.,   3.33333325
    539,          10.,          2.5,   1.66666663
    540,          10.,          2.5,   3.33333325
    541,          10.,           2.,   1.66666663
    542,          10.,           2.,   3.33333325
    543,          10.,          1.5,   1.66666663
    544,          10.,          1.5,   3.33333325
    545,          10.,           1.,   1.66666663
    546,          10.,           1.,   3.33333325
    547,          10.,          0.5,   1.66666663
    548,          10.,          0.5,   3.33333325
    549,   4.88484192,   2.30720544,           5.
    550,     4.677701,   2.75504088,           5.
    551,   8.25078011,  0.449730277,           5.
    552,   7.75043774,  0.442893803,           5.
    553,   7.25005484,  0.435262918,           5.
    554,   6.74623013,  0.436693728,           5.
    555,   6.22894669,  0.437335432,           5.
    556,   5.67856789,  0.448301226,           5.
    557,   9.49884224,   8.80271721,           5.
    558,      9.53862,   8.23264694,           5.
    559,   9.57147217,   7.73288584,           5.
    560,   9.56620407,   7.25761414,           5.
    561,    9.5512085,   6.76215315,           5.
    562,    9.5631609,   6.25116682,           5.
    563,    9.5656929,   5.75003815,           5.
    564,   9.56625748,   5.24997282,           5.
    565,   9.56643105,   4.74998617,           5.
    566,   9.56651592,   4.24998999,           5.
    567,   9.56657982,   3.74998498,           5.
    568,   9.56665897,   3.24998021,           5.
    569,   9.56675243,   2.74998236,           5.
    570,   9.56682301,   2.24998593,           5.
    571,   9.56279373,   1.74723256,           5.
    572,    9.5483551,   1.22516537,           5.
    573,   9.54678345,  0.678165257,           5.
    574,   4.34544039,   3.70895648,           5.
    575,   5.10282707,   4.47831202,           5.
    576,   5.82149744,    5.2000699,           5.
    577,   6.18060637,   5.55925179,           5.
    578,   6.53969145,   5.91844606,           5.
    579,   7.25791788,   6.63676882,           5.
    580,   7.97548389,    7.3516531,           5.
    581,   8.32674217,   7.71070623,           5.
    582,   8.67742443,   8.06809044,           5.
    583,   9.05181026,   8.41868114,           5.
    584,   4.73371172,   4.10971737,           5.
    585,   5.46231174,    4.8402276,           5.
    586,   6.89877224,   6.27764368,           5.
    587,   7.61923361,   6.99481106,           5.
    588,   5.07570982,    1.8323139,           5.
    589,   4.48046207,   3.19748092,           5.
    590,   5.24462509,   1.36400807,           5.
    591,   5.41704559,  0.905372024,           5.
    592,    8.7472496,  0.451607287,           5.
    593,   9.68428612,   9.24506092,           5.
    594,   8.00039482,   0.91019243,           5.
    595,   6.99930954,   0.87089622,           5.
    596,   9.10111618,   6.50009298,           5.
    597,   9.13313103,   2.99994206,           5.
    598,   7.49746323,  0.885915637,           5.
    599,   6.48843956,  0.865542114,           5.
    600,   9.14266491,   7.92087507,           5.
    601,   9.22565079,   7.51214933,           5.
    602,   9.04759884,   7.07555676,           5.
    603,   9.12764168,   5.99256134,           5.
    604,   9.13275528,   3.99993014,           5.
    605,   9.13254929,   4.49993515,           5.
    606,   9.13286018,   3.49990678,           5.
    607,   9.13319588,   2.50016713,           5.
    608,   9.13029861,   2.00106072,           5.
    609,   9.11887264,   1.49542809,           5.
    610,   9.16884041,  0.409630686,           5.
    611,   9.13250256,   4.99964714,           5.
    612,   9.13271999,   5.49687004,           5.
    613,     6.311409,   5.06929445,           5.
    614,   6.67046976,   5.42856693,           5.
    615,   5.22609329,   3.98887157,           5.
    616,   5.59262276,   4.35002279,           5.
    617,   7.38833475,   6.13526678,           5.
    618,   7.75320292,    6.4900794,           5.
    619,   8.48174572,   7.21397448,           5.
    620,   5.95205688,   4.70990896,           5.
    621,   7.02544355,   5.78548002,           5.
    622,   8.11308289,   6.85311079,           5.
    623,   5.17148018,    2.7051518,           5.
    624,   9.05094814,   0.92845881,           5.
    625,    5.9660759,  0.870671928,           5.
    626,   4.85343313,   3.61182666,           5.
    627,   5.74499178,   1.31019771,           5.
    628,   8.50645828,  0.915744543,           5.
    629,   8.69847775,   4.24838734,           5.
    630,   8.70270157,   1.74921322,           5.
    631,    8.7016468,   2.24889374,           5.
    632,    8.6848135,   4.75709581,           5.
    633,     8.717103,   5.74677992,           5.
    634,   8.68900585,   5.27174664,           5.
    635,   8.69861889,   3.74930263,           5.
    636,   8.69967365,   2.74966669,           5.
    637,   8.69240665,   6.21013165,           5.
    638,   8.61132717,   6.70270729,           5.
    639,   8.69898605,   3.24962592,           5.
    640,   7.73780537,   1.34199381,           5.
    641,   7.24842691,   1.31485581,           5.
    642,   6.75027227,    1.2931211,           5.
    643,   5.37194014,   2.23949528,           5.
    644,   4.98881769,   3.14359069,           5.
    645,   8.72843838,     1.304039,           5.
    646,    6.0828948,   4.21880054,           5.
    647,   6.44162607,   4.57949495,           5.
    648,   6.80200863,   4.93989468,           5.
    649,   7.15470219,   5.29923487,           5.
    650,   7.50113201,   5.63705349,           5.
    651,   7.91708517,   5.94806051,           5.
    652,   8.24114227,      6.35955,           5.
    653,   5.71430922,   3.84791493,           5.
    654,   6.25210953,   1.28997076,           5.
    655,    5.3353734,    3.4943397,           5.
    656,   5.55514097,   1.76638365,           5.
    657,   6.03593445,    1.7247597,           5.
    658,   8.26798725,   1.42445457,           5.
    659,   6.51712656,   1.71651208,           5.
    660,   5.83099222,   3.27206016,           5.
    661,   8.26629257,    3.0015862,           5.
    662,    8.2517643,   4.49836111,           5.
    663,   8.26117992,   2.49464417,           5.
    664,   8.27308559,   1.98137712,           5.
    665,   8.37056732,   5.96814823,           5.
    666,   8.17429924,   5.06296349,           5.
    667,   8.29468727,   5.57981968,           5.
    668,   8.24900436,   3.51246166,           5.
    669,   8.25711536,   4.01374006,           5.
    670,   7.00418854,   1.73102152,           5.
    671,   7.49060059,   1.75423741,           5.
    672,   6.58994007,   4.08868885,           5.
    673,   6.95298052,   4.45290899,           5.
    674,   7.63320398,   5.16306925,           5.
    675,   7.29603338,   4.81163406,           5.
    676,   6.22112703,   3.70548224,           5.
    677,   5.68809652,    2.6817441,           5.
    678,   5.40295219,   3.05937719,           5.
    679,   5.83974409,   2.16797352,           5.
    680,   6.76738453,   2.16062689,           5.
    681,    6.3857317,   3.19034553,           5.
    682,   7.91055822,   1.74326205,           5.
    683,   7.83485317,   2.74318552,           5.
    684,   7.78279781,   2.20318794,           5.
    685,   7.78780842,   4.68595695,           5.
    686,   7.79718494,   3.24797177,           5.
    687,   7.89866209,   4.27083969,           5.
    688,   7.72583914,   3.82668781,           5.
    689,   7.25607491,   2.16399217,           5.
    690,   7.12856007,   3.95758367,           5.
    691,    7.4649806,   4.33426857,           5.
    692,   6.75382423,   3.57834768,           5.
    693,   7.05077648,   2.58805013,           5.
    694,   6.89946747,   3.06443453,           5.
    695,   6.10093021,   2.84690547,           5.
    696,   7.38923216,    2.9382329,           5.
    697,   7.28235149,   3.43554306,           5.
    698,   7.46274662,   2.52732968,           5.
    699,    6.0866437,   2.49011803,           5.
    700,   6.51241684,   2.63857222,           5.
    701,   6.29320812,   2.14976048,           5.
    702,   7.90408182,   5.47819328,           5.
    703,   8.81697178,   7.58355856,           5.
    704,          9.5,           0.,   3.33333325
    705,           9.,           0.,   3.33333325
    706,          8.5,           0.,   3.33333325
    707,           8.,           0.,   3.33333325
    708,          7.5,           0.,   3.33333325
    709,           7.,           0.,   3.33333325
    710,          6.5,           0.,   3.33333325
    711,           6.,           0.,   3.33333325
    712,          5.5,           0.,   3.33333325
    713,          9.5,           0.,   1.66666663
    714,           9.,           0.,   1.66666663
    715,          8.5,           0.,   1.66666663
    716,           8.,           0.,   1.66666663
    717,          7.5,           0.,   1.66666663
    718,           7.,           0.,   1.66666663
    719,          6.5,           0.,   1.66666663
    720,           6.,           0.,   1.66666663
    721,          5.5,           0.,   1.66666663
    722,   5.24524736,   1.36344099,           0.
    723,   5.07825899,    1.8323983,           0.
    724,   5.41407537,  0.909755707,           0.
    725,    4.8830905,   2.30360389,           0.
    726,   4.66824436,   2.76593542,           0.
    727,   9.56675243,   3.74996161,           0.
    728,   9.56579971,   1.25567472,           0.
    729,     9.501441,   8.80162621,           0.
    730,   9.55185223,   7.24192619,           0.
    731,   9.56300163,   6.24950647,           0.
    732,   9.56530952,   5.74983692,           0.
    733,   9.56621552,   5.24996328,           0.
    734,   9.54329967,   8.23381996,           0.
    735,   9.55166817,   7.73083448,           0.
    736,   9.55069065,   6.74695396,           0.
    737,   9.56639957,   4.74998331,           0.
    738,   9.56653023,   4.24997425,           0.
    739,    9.5669651,   3.24995184,           0.
    740,   9.56712627,   2.74997592,           0.
    741,   9.56716633,   2.25000119,           0.
    742,   9.56692886,   1.75098133,           0.
    743,   9.32971764,  0.456917405,           0.
    744,     7.750916,   0.43325159,           0.
    745,   7.25004578,  0.432347387,           0.
    746,   6.74180698,  0.436564803,           0.
    747,   6.22563028,  0.439874381,           0.
    748,   5.67937279,  0.451719344,           0.
    749,   9.05420971,   8.42499828,           0.
    750,   7.99112701,   7.36457157,           0.
    751,   6.18057966,   5.55925941,           0.
    752,   5.82121801,   5.20028734,           0.
    753,   5.10158014,   4.48141193,           0.
    754,   4.73411989,   4.12656116,           0.
    755,   8.33828259,   7.74355221,           0.
    756,   7.62244225,   6.99871492,           0.
    757,    7.2592802,     6.637465,           0.
    758,   6.53970528,   5.91842508,           0.
    759,   5.46142149,   4.84110737,           0.
    760,    6.8990674,   6.27778864,           0.
    761,   8.67174053,   8.09548283,           0.
    762,   5.96266794,  0.876374781,           0.
    763,   4.41392756,   3.26266336,           0.
    764,   8.78114986,  0.452278435,           0.
    765,   9.59675217,  0.831400156,           0.
    766,   9.13307762,    3.9998064,           0.
    767,   9.10444832,   6.48474979,           0.
    768,   9.13271427,   5.49832058,           0.
    769,   9.13261509,   4.49988174,           0.
    770,   9.13421249,   2.99981952,           0.
    771,   8.25762749,  0.437773228,           0.
    772,   6.99544907,  0.867120743,           0.
    773,   9.08173943,   6.98466921,           0.
    774,   9.13439846,   2.49901843,           0.
    775,   9.13380051,   1.99352622,           0.
    776,   9.13166618,   1.48798299,           0.
    777,    7.4966259,    0.8642838,           0.
    778,   6.48523569,  0.867980957,           0.
    779,   9.13365173,   3.49971437,           0.
    780,   9.12531281,   5.98981571,           0.
    781,   9.13235188,    4.9996419,           0.
    782,   9.10208702,   7.47568512,           0.
    783,   4.35906172,   3.78397441,           0.
    784,   8.57385921,   7.26303959,           0.
    785,   8.13042068,    6.8706522,           0.
    786,    7.7435751,   6.51422691,           0.
    787,   6.67041969,   5.42852545,           0.
    788,   6.31085014,   5.06956053,           0.
    789,   5.22012091,    3.9985795,           0.
    790,    7.0260148,   5.79045868,           0.
    791,   5.95040894,   4.71063375,           0.
    792,   5.58666182,   4.35279512,           0.
    793,   7.37811518,   6.15632105,           0.
    794,   9.11281013,   7.94307184,           0.
    795,   5.56265306,   1.74450076,           0.
    796,   5.18095255,   2.69905782,           0.
    797,   5.38894033,   2.22173476,           0.
    798,   9.68480587,   9.24484253,           0.
    799,   8.00348186,   0.88031441,           0.
    800,   9.09358692,  0.946647525,           0.
    801,    8.6958437,   4.24612522,           0.
    802,   8.68822384,   4.74062109,           0.
    803,   8.68712807,   5.23252058,           0.
    804,   8.70168781,   2.74839997,           0.
    805,   8.68905258,   5.71737099,           0.
    806,   8.70834446,   1.72057223,           0.
    807,   8.70441628,   2.23514843,           0.
    808,    8.6713295,   6.20012045,           0.
    809,    6.7343812,   1.30406106,           0.
    810,   8.69889736,   3.74817348,           0.
    811,   7.24388552,   1.29833019,           0.
    812,   8.70077229,   3.24887562,           0.
    813,   8.52340508,  0.893991292,           0.
    814,   5.73684597,   1.30210316,           0.
    815,   4.99015284,   3.16475034,           0.
    816,   4.84319878,   3.64524245,           0.
    817,   8.75975609,   7.70416641,           0.
    818,   6.80249929,   4.94075441,           0.
    819,   7.17049551,   5.31051064,           0.
    820,   7.50944662,   5.69598913,           0.
    821,   7.83782482,   6.05520916,           0.
    822,   8.21257877,   6.37706375,           0.
    823,   8.62906265,   6.69671583,           0.
    824,   6.43998766,   4.58166409,           0.
    825,   5.71463823,   3.88517094,           0.
    826,   6.07815504,   4.23062038,           0.
    827,   5.94800282,   2.11951661,           0.
    828,   5.69985771,   2.62413764,           0.
    829,   6.22535133,   1.29341805,           0.
    830,   5.35206032,   3.53844213,           0.
    831,   8.26136494,   5.90989113,           0.
    832,   7.73702765,   1.31105983,           0.
    833,   8.74497318,     1.285864,           0.
    834,   8.26869011,   2.99828649,           0.
    835,   8.26172447,    2.4772346,           0.
    836,   6.96707678,   1.73711407,           0.
    837,   8.24971104,    5.4499321,           0.
    838,   8.23367786,   4.96546412,           0.
    839,   8.26543999,   4.47775555,           0.
    840,   8.27229118,   1.95061386,           0.
    841,   8.25027466,   3.51012325,           0.
    842,   8.25902653,   4.00828552,           0.
    843,   8.27161694,   1.39290679,           0.
    844,   5.98156786,   1.64752591,           0.
    845,   6.22652054,    3.7700932,           0.
    846,   7.74058008,   5.22459793,           0.
    847,   7.31741428,   4.82166243,           0.
    848,   6.59761667,   4.10766697,           0.
    849,   6.95942211,   4.45868444,           0.
    850,   6.42667055,   1.77360916,           0.
    851,    5.5143671,   3.08127666,           0.
    852,   4.01364946,   3.52976179,           0.
    853,   6.20717239,   2.55948257,           0.
    854,   5.86640787,   3.43593287,           0.
    855,   6.71946096,   2.08390045,           0.
    856,   7.46514368,   1.74270356,           0.
    857,   7.82999182,   2.74453878,           0.
    858,   7.79993582,   3.25602412,           0.
    859,   7.76029634,   2.20264435,           0.
    860,   7.90398884,   4.26221418,           0.
    861,   7.73177528,   3.83023334,           0.
    862,   7.90127516,    1.7199856,           0.
    863,   6.03320646,   2.98877048,           0.
    864,    7.9197855,   5.66712379,           0.
    865,   7.81952381,   4.68001556,           0.
    866,   6.76044321,   3.63813949,           0.
    867,    7.4791832,   4.33746147,           0.
    868,   7.13977098,   3.97446871,           0.
    869,   6.39245796,   2.20005178,           0.
    870,   7.38353729,   2.99229884,           0.
    871,   7.14690113,   2.21837735,           0.
    872,   7.42928553,   2.57600331,           0.
    873,   7.28687096,   3.47853994,           0.
    874,   6.53540421,   2.87310839,           0.
    875,   6.67118311,    2.4428463,           0.
    876,   7.01201248,   2.71378493,           0.
    877,   6.89297771,   3.17004776,           0.
    878,   6.38582659,   3.31268191,           0.
    879,   3.86505222,   3.17196631,   3.33333325
    880,   3.86505222,   3.17196631,   1.66666663
    881,   4.15734816,    2.7778511,   3.33333325
    882,   4.15734816,    2.7778511,   1.66666663
    883,   4.40960646,   2.35698366,   3.33333325
    884,   4.40960646,   2.35698366,   1.66666663
    885,   4.61939764,   1.91341722,   3.33333325
    886,   4.61939764,   1.91341722,   1.66666663
    887,   4.78470182,   1.45142341,   3.33333325
    888,   4.78470182,   1.45142341,   1.66666663
    889,   4.90392637,  0.975451589,   3.33333325
    890,   4.90392637,  0.975451589,   1.66666663
    891,   4.97592354,  0.490085691,   3.33333325
    892,   4.97592354,  0.490085691,   1.66666663
    893,   1.55867803,   6.49791861,  0.823540449
    894,   1.65138888,   6.12539673,   2.51435256
    895,   1.03119743,   7.13878679,   2.72413373
    896,   1.31410182,   7.21048594,   4.13854837
    897,  0.890733361,   5.86064672,   0.92443347
    898,   1.34378922,    5.5097146,   1.05356026
    899,   2.97948813,   6.87887621,  0.711643934
    900,   1.37820971,   7.27241087,  0.868386745
    901,   2.28248835,   5.65249729,   1.69755387
    902,  0.528761089,   6.98019218,  0.766471326
    903,   7.53757429,   8.34315586,  0.546622038
    904,    4.1979599,   5.47721863,    2.4094162
    905,   4.55343199,   5.83536482,   3.12870169
    906,   2.87569213,   5.44909668,   3.38601637
    907,   3.57493258,   4.88989782,    3.3732059
    908,   3.36504793,   5.83101463,   4.18708229
    909,   2.69120526,   5.82540989,   4.45651722
    910,   2.47157717,   6.86287928,    4.0764699
    911,   1.99065804,   5.63221455,    4.0315361
    912,   3.05316925,   6.65986633,   2.68526983
    913,   2.98202062,   4.86540556,   4.25342894
    914,   2.57856441,   5.31468296,    2.5701561
    915,   4.80713463,   6.52839422,  0.734741032
    916,   5.56273031,   6.15443373,  0.523948073
    917,   4.73540688,    5.5680418,  0.389396578
    918,   4.23612642,   5.63974714,  0.794248283
    919,    4.0839653,    7.3482008,    1.0189389
    920,   5.32726431,   7.34344482,   1.65036452
    921,   6.07533121,   7.39055634,  0.770258665
    922,   3.85266042,   5.61930609,   1.65193605
    923,    5.2989316,   6.82264805,   4.10687733
    924,   4.46100283,   7.10919237,   2.67343831
    925,   5.28176403,   6.22327232,   4.43609142
    926,   5.25718689,   6.55380535,   2.17257619
    927,   2.91325307,   5.07668781,   1.08622169
    928,   3.53291273,   4.94820213,  0.404507905
    929,   3.58713245,   4.50271654,   2.59613085
    930,   3.87935305,   4.83562708,  0.968268812
    931,   4.17325974,   5.47779322,   4.38298988
    932,   3.53804731,   4.96247578,   4.55773067
    933,   4.00818872,   4.92788553,   4.36061573
    934,   1.09409225,   6.18307924,   3.33113527
    935,  0.930087745,   6.21888304,   4.12289953
    936,   3.94034433,    7.2361021,   3.94942331
    937,   0.44810456,   5.49028063,   4.50163984
    938,   1.50741625,   5.34642744,   4.37919331
    939,   4.98177338,   7.57546997,   3.97431493
    940,   3.54839325,   4.34522533,  0.684059501
    941,   1.99818778,   5.19448328,  0.558006883
    942,    9.0211916,   9.54539204,   4.16228676
    943,   2.61911607,    5.5876565,  0.495970935
    944,  0.759195149,   5.68524933,  0.321738869
    945,  0.883964419,   5.37951803,  0.532034576
    946,   6.61659718,   8.02248478,   2.75054693
    947,   6.25432253,   8.04490471,   4.29380035
    948,   5.93611288,   6.94552422,   4.27751112
    949,    4.3091855,   6.21268654,   4.39376259
    950,   4.21683216,   4.90592051,  0.519192874
    951,  0.893999398,   5.59599161,   2.47185445
    952,   8.31137085,   8.96015453,   4.49561834
    953,  0.786243677,   6.80718851,   4.25116873
    954,   2.72944546,   4.81868935,  0.407270968
    955,   6.76648903,   8.00970078,  0.608405232
    956,   4.81238461,   5.70309877,    4.3829608
    957,   2.25513077,   5.06996727,   4.53640795
    958,   7.87410069,   8.36897659,    4.2257843
    959,   6.83892679,   7.98571968,   4.24767351
    960,   3.54787827,   4.50237942,   4.37140846
    961,    4.8666029,   15.2636127,   2.03895879
    962,   3.44911671,   15.8066721,   2.01565599
    963,   3.74730444,   14.7589149,   1.94081032
    964,   4.33882093,   14.8344316,   2.77544808
    965,   5.21691513,    13.924365,   1.11276257
    966,   4.10109472,   14.9796743,  0.859434962
    967,   5.51451969,   15.6047659,   1.04326165
    968,   4.50948477,    14.061182,   2.04481888
    969,    5.8510313,   13.6756582,   2.57133484
    970,   5.99099779,   15.3086357,   2.52817702
    971,   5.04458952,   15.9432764,   3.64084435
    972,   4.76410007,   16.3520851,   2.49707437
    973,   8.98900986,   16.0929699,  0.851364911
    974,   7.78816175,   16.4640331,  0.847207963
    975,   8.77186203,   17.3371658,    1.4649148
    976,   9.12853527,   17.0636501,   2.76770282
    977,   9.25397778,   17.8764439,  0.740510583
    978,    7.7312851,   17.8019733,   1.13489342
    979,  0.834038317,   15.5506258,   2.56070423
    980,   2.30113339,   15.6315355,   1.97379673
    981,   1.33484614,    15.236701,   1.05658042
    982,   1.58511746,   16.2736073,    2.2913456
    983,  0.852441311,   11.0381746,   4.11744595
    984,   1.71351182,   10.9011679,   4.04203367
    985,     2.506881,    16.951395,   1.13042533
    986,   2.79235649,   16.1871529,   2.74236369
    987,  0.902703166,   16.7707119,   2.65032649
    988,   1.40617228,   16.3267136,   1.05005133
    989,   2.25977683,   15.8315172,  0.967860878
    990,   2.79700279,   17.2931004,   2.49302578
    991,   1.43387902,   17.4466705,    1.2073313
    992,   6.10660505,     12.15347,   2.63887072
    993,   4.04235125,   11.4143772,   2.83247519
    994,   5.34434891,   10.8943958,    3.6979363
    995,   5.72191572,   12.1747513,   3.72490335
    996,    4.3575983,    12.195941,     3.783921
    997,   5.09522676,   12.8251343,   3.11510348
    998,   6.33433485,   13.1021204,   4.15214109
    999,   5.53839684,   12.9881353,    1.3811717
   1000,   5.03624535,   11.4652681,   1.28887236
   1001,   4.67829704,   13.8366041,   3.60277462
   1002,   3.94115448,   12.9024096,   2.50535893
   1003,   1.64798558,   14.2278223,   4.33570099
   1004,   1.01334381,   14.8098831,   3.96160078
   1005,  0.988903284,   12.2119417,   2.82426429
   1006,   2.40988636,   12.1238861,   2.73654222
   1007,   1.00399578,   12.9223347,   2.36742568
   1008,   1.91007054,   13.2397804,   3.01269984
   1009,   2.34971499,   13.8119946,   4.32647324
   1010,   1.63009882,   14.2135515,   3.39288592
   1011,   2.06874657,   12.9550381,   3.92857957
   1012,   2.63910365,   15.1831512,   4.02659035
   1013,   1.14563453,   14.6550894,   1.81802988
   1014,  0.988132834,   14.3777456,   2.48201513
   1015,   1.96221542,   15.6010323,   3.05331922
   1016,   3.64512038,   15.4104347,   3.00318098
   1017,   2.70240736,   14.8999338,   3.03521872
   1018,   2.73549509,    14.573947,   2.06467557
   1019,   4.21496105,   15.6999388,   1.24893558
   1020,   4.17941904,   16.6534882,   3.68030119
   1021,   4.63447094,   17.6579914,   2.49560165
   1022,    3.4807291,   16.3705559,   1.32011843
   1023,   3.68415689,   13.5468102,   1.39231467
   1024,   3.56348419,   14.0631123,    2.6869328
   1025,   1.98374999,   13.9480371,   0.85222882
   1026,  0.973636568,   13.7004337,   1.08219039
   1027,   1.68535149,   9.94677734,  0.984110177
   1028,   2.60775876,   9.46740246,   1.83310258
   1029,  0.813625693,    10.730094,  0.867697418
   1030,   1.57163155,   10.2545223,   2.14311123
   1031,   1.96777141,   18.3621979,    3.2442286
   1032,   2.04735208,   17.2697086,   3.71506763
   1033,   2.94568539,   17.6854649,   4.03533792
   1034,   2.06424665,   11.5946341,     1.455091
   1035,   1.11385715,   8.93507195,   2.62807679
   1036,    1.5342871,    18.530386,  0.888784587
   1037,   2.35044122,   18.3484135,   1.84010601
   1038,   1.03869641,   18.8555698,   2.37964082
   1039,  0.522790492,   18.2377396,  0.807708263
   1040,   9.21866512,   15.7138615,   4.04401636
   1041,   1.00397122,   13.4423065,   4.01473713
   1042,   2.98235536,   12.5796547,   3.88144851
   1043,   2.58377433,   13.8499317,   3.20856738
   1044,   1.72259772,   13.5817976,   1.97977793
   1045,   6.32610035,   10.5439234,   2.25293398
   1046,   7.22044134,   11.5529423,    2.4772737
   1047,   6.71140718,   11.2778835,   3.73733783
   1048,   5.48644686,   9.94994736,   1.15246105
   1049,  0.959735751,   15.7656946,   4.14894056
   1050,   2.12164354,    16.025898,   4.20510626
   1051,   1.13413358,    16.804285,   3.92647028
   1052,   2.99461865,   16.2493382,   3.71168017
   1053,   6.24454451,   14.1348543,   3.77195215
   1054,   7.36402464,   13.7975044,   3.72384071
   1055,   7.07651901,   14.5143147,   2.18193007
   1056,   7.37950611,    14.906642,   4.32077217
   1057,   6.44762087,   15.1232815,   3.71634722
   1058,    4.6434412,   14.8201065,   3.66411996
   1059,   6.82834196,   13.9335012,   1.02082837
   1060,   8.59157562,   14.9149876,   3.26923823
   1061,   8.92940807,   14.3178682,   4.22723532
   1062,   9.05430508,   14.0784082,   2.56873941
   1063,   7.51930952,   15.4581165,   3.11757708
   1064,   7.89611912,    14.271677,   3.01749182
   1065,   7.73322821,   15.4649181,   1.99911058
   1066,   8.57837772,    13.562973,   3.19238949
   1067,   9.03679562,    16.102953,   2.42853856
   1068,   3.52342701,   10.6328583,   1.76469183
   1069,   2.60655832,   10.7973061,   2.88137031
   1070,   8.84172916,   17.6134758,    4.2499094
   1071,   0.91943866,   11.0791168,   2.78117609
   1072,   2.56822586,   9.31731224,   3.91751671
   1073,   3.47292829,   14.5204372,   3.96038461
   1074,   3.07482648,   14.9255381,  0.888864577
   1075,   8.89850426,   10.6865559,   1.09900665
   1076,   7.61267042,   11.7585192,   1.01581466
   1077,   4.88115311,    9.8226223,   2.63026214
   1078,    3.7713213,   10.3260002,   3.45637393
   1079,   9.06990528,   11.8286552,  0.857000947
   1080,   8.80955696,   13.1364174,  0.789157987
   1081,    4.2324872,   9.65644169,   3.99351668
   1082,   8.09425068,   14.0519876,   3.89062071
   1083,   7.40967989,   13.3844728,   2.48805809
   1084,   8.10064602,   12.6400347,   3.85062528
   1085,   8.49607658,   13.6836643,   1.94377244
   1086,   8.93257236,   13.0205517,    4.1607132
   1087,   1.85904706,   13.0578785,  0.795326114
   1088,   2.65846086,   13.1437359,   1.38279414
   1089,   8.48331928,   12.5366802,   1.92187524
   1090,   8.64003563,   10.8962297,   2.32907724
   1091,   7.62951183,   13.1125803,   1.30181754
   1092,    9.0919075,   12.4549131,   2.66300941
   1093,   1.86814952,   11.7566862,   3.90693331
   1094,    3.1201055,   11.3387136,    3.8747704
   1095,   3.61664319,   12.2915106,   1.01184297
   1096,   3.42896295,   13.3956547,   4.13664246
   1097,   8.44281387,   15.1834297,   4.23152399
   1098,   7.94442987,   16.1236591,   4.02425098
   1099,   7.28414774,   15.5307531,   4.08651829
   1100,   9.18309784,   17.1178989,   4.05675936
   1101,   3.18635774,    14.197052,   0.90161258
   1102,   2.60253692,   13.4575834,   2.36336231
   1103,   5.39498472,   14.5771208,   4.33780384
   1104,   8.93188667,   18.9351501,   2.31466174
   1105,   6.48159838,   16.7409363,   2.45706058
   1106,   5.38477182,   18.6070156,   2.76138425
   1107,   6.17851973,   17.0916557,  0.958693385
   1108,   6.83955383,   15.7270041,   0.85791707
   1109,   8.04876518,   16.9202385,   2.39176106
   1110,   7.61012411,   17.9919662,   2.52118468
   1111,   6.83868599,   14.8783398,   1.12096095
   1112,   7.82211733,   14.2080593,   1.18878019
   1113,   6.09396362,   18.9708672,   4.02873755
   1114,   7.24597216,     12.44205,   3.89463043
   1115,   6.18843937,   12.4002104,   1.00460911
   1116,    1.0470444,   19.0544453,    3.9900043
   1117,   8.88717365,   10.9504194,   4.02643824
   1118,   7.08377361,   17.7519798,   3.83647895
   1119,   6.91976643,   16.3851547,   3.65374422
   1120,   3.50928712,    18.829895,    2.7347846
   1121,   3.21239305,   18.8509998,   3.82009506
   1122,   3.90174103,   17.7783146,   1.16272998
   1123,   4.21954823,   17.9599991,   3.99068356
   1124,   8.75191402,   14.7163916,   1.01350892
   1125,   5.72397137,   17.1804657,   3.86139703
   1126,   8.16448212,    17.075201,   3.71039605
   1127,   8.63318443,   17.9987736,   3.22831345
   1128,   6.83137465,   18.6715412,   1.80596602
   1129,   9.10061646,   18.8787479,  0.918086767
   1130,   4.87866831,   18.8702145,   1.16246307
   1131,   4.65174675,   17.0253029,   1.27530098
   1132,   2.10284781,   14.7382298,   1.16659558
   1133,  0.883372962,   12.3600426,   1.01307344
   1134,   3.94259071,   15.4707003,   3.96290088
   1135,  0.635132611,    17.857523,   4.32567215
   1136,  0.953837633,    12.296628,    4.2450428
   1137,  0.753022909,   17.3794785,  0.792362392
   1138,  0.749587297,   15.9360771,  0.655920208
   1139,  0.564428031,   14.5376339,  0.753431141
   1140,   7.96635151,   15.3536224,   1.07453454
   1141,   8.99054337,   14.0152102,  0.791374207
   1142,   8.26711559,   2.39246368,   1.64782822
   1143,    7.6123147,   2.89561367,   1.96265483
   1144,   7.68013096,   2.75862551,   1.50607002
   1145,    7.7424221,   2.30491972,    2.0347383
   1146,   8.80462551,    2.7611649,   1.69075322
   1147,   8.74120426,   2.04371047,   1.04572523
   1148,   9.18008327,   2.52235484,   1.13459361
   1149,   8.92811489,   1.65375042,   1.89332044
   1150,   8.24054623,   2.35644484,   1.04947829
   1151,   7.76670408,   2.73336768,  0.967661977
   1152,   8.27632809,   3.03227401,   1.05855107
   1153,    7.7157793,   2.03067875,   1.49338102
   1154,    7.6566782,   2.31227589,   1.00155354
   1155,   8.20837879,   3.00137925,   1.63163745
   1156,   6.94332886,   2.82503343,    2.9163208
   1157,    7.0773797,   1.90308249,   3.48197889
   1158,   6.47573996,   2.11373997,   3.30660582
   1159,   6.97274065,   2.15390706,   2.70599723
   1160,   6.86556768,    3.2628417,   2.49226832
   1161,   7.37703848,   3.35436606,   2.79777241
   1162,   7.40626192,   2.64285421,   2.48445415
   1163,    6.7206893,   2.50408721,   2.05566788
   1164,   6.22942019,   2.49674058,   2.68209743
   1165,   6.61880541,   2.74057055,   3.43370438
   1166,   7.54265642,   2.62153625,   3.05376077
   1167,   6.99632978,   3.10661316,   1.94498944
   1168,   6.69674253,    1.6348213,   1.56796539
   1169,   6.45360947,   1.93591046,   2.18495607
   1170,    7.1484189,   1.98928988,   1.63228869
   1171,   6.31947947,   2.24510527,   1.43115819
   1172,   7.17350149,   1.70422101,   2.32801795
   1173,   6.45894527,   1.14762115,     2.554353
   1174,   6.02012491,   1.28035212,   1.56981504
   1175,   8.73433304,   3.73283768,   1.68170011
   1176,   9.11351681,   3.18988347,   2.31399107
   1177,   6.59618759,  0.800630331,   1.12298775
   1178,     6.905406,   1.35037768,   1.03908801
   1179,   7.07479286,   1.05984342,   1.89486909
   1180,   8.33290672,   1.74881959,   1.46552479
   1181,   7.18764114,    2.4979794,   1.48917055
   1182,   7.18580055,   1.89927745,  0.895916641
   1183,    7.7743535,   1.71737695,   1.01701069
   1184,   7.83311653,   1.20335376,   1.73148406
   1185,   8.00802994,    2.7708571,   2.68877006
   1186,   7.35158205,   3.38927627,   2.22000241
   1187,   7.71803331,   1.77822137,   2.72309875
   1188,   7.85099459,   2.57708526,   3.54831767
   1189,   7.77234554,    3.1314466,   3.60712004
   1190,   8.29654598,   2.94665384,   3.42202878
   1191,   7.86772156,   3.53346372,   2.89114904
   1192,   8.96631527,   2.70824862,    3.1079731
   1193,   8.37433243,   3.28211594,   2.85870051
   1194,   8.48085976,   2.92257118,   2.31793046
   1195,   6.73218203,   2.19996572,  0.921710968
   1196,   7.05309868,   2.75152659,  0.923552394
   1197,    7.1627636,   2.20807695,  0.511606753
   1198,   6.71312094,   2.62564802,  0.739414573
   1199,   9.64193344,   9.11209202,   4.53004551
   1200,   7.20863247,   2.31734776,    1.0186615
   1201,    7.1423111,   2.75724769,   0.36746183
   1202,   6.32842875,   2.74823332,  0.867086887
   1203,   6.19687653,   2.32151008,  0.308219969
   1204,   6.17793226,    1.9443872,  0.838551104
   1205,   6.70354939,   2.74750924,   1.16948605
   1206,   8.37689209,   2.18537188,   3.51540923
   1207,   8.62201405,   1.36180556,   3.63123369
   1208,    9.2907362,   1.46225071,   4.00545883
   1209,   8.66157341,   1.88388669,   4.07893372
   1210,   6.65060711,   2.88457918,   0.37763992
   1211,   7.41505003,   2.28676343,   3.79497027
   1212,    7.3083787,  0.576056242,   4.66768837
   1213,   7.98255634,   3.33026052,   2.13480735
   1214,   9.36236763,   8.26536465,  0.354525715
   1215,   8.04259491,    4.3466258,   2.05254054
   1216,   8.40420341,   3.84712911,   2.34715414
   1217,   7.14220238,   2.59261656,   2.00461459
   1218,   7.03530407,   2.83475804,    1.4463551
   1219,   6.52243376,   3.60824323,   1.84157085
   1220,   7.31789303,   3.42287779,     1.638713
   1221,   6.84833288,   3.47807455,   1.35947371
   1222,   6.44646978,   3.13978529,   1.38801908
   1223,   5.94471264,   3.10568142,   1.90060496
   1224,   6.57767963,   4.04828835,    2.2943511
   1225,   6.28318214,   3.54162169,   2.69194746
   1226,   5.32196379,   3.34719872,     1.566378
   1227,   5.49697447,   3.95826507,   2.43990183
   1228,   6.87651205,   3.36075068,   3.14221311
   1229,   9.47216415,    3.0234015,  0.666992724
   1230,   9.08918381,   3.39376688,   1.08172548
   1231,   6.77420092,   2.02392244,   4.08048058
   1232,   7.02533245,   2.52859497,   4.03163004
   1233,   6.30911446,   2.24889755,   4.03697109
   1234,   6.37229252,   1.44561088,    4.0733242
   1235,   9.08730221,   8.37739944,   4.13234806
   1236,   9.53086567,   8.20531273,   4.33392906
   1237,    6.0069747,   1.60673463,   3.40034986
   1238,   5.71416187,   2.33202958,   3.17108536
   1239,   6.10206079,   2.86337423,   3.93954277
   1240,   7.71940899,   3.17635059,   1.58071017
   1241,   7.99998856,   3.81571436,   1.67505538
   1242,   8.20796871,   3.50293827,   1.31651819
   1243,    7.8238306,   1.75442934,   3.94938135
   1244,   8.09713936,   2.31481028,     4.088377
   1245,   7.71253109,   2.58850884,   4.12596416
   1246,   8.08350945,    3.0781033,   4.07477713
   1247,   8.94215965,   7.37058306,   1.61014104
   1248,    9.1604414,   8.08285236,  0.959054172
   1249,   7.41435337,   2.88667345,   3.55293679
   1250,   7.23273468,   1.88765001,   4.15056944
   1251,   7.78775978,   2.22362208,   4.52050352
   1252,   7.27065992,   2.20319676,   4.51935434
   1253,   5.45155621,  0.670547128,   4.42910194
   1254,   5.98268223,    0.6540308,   4.08981276
   1255,   9.28766346,    4.9254427,   3.96413565
   1256,   6.85269213,   4.38180685,   1.05988073
   1257,   7.26632977,   3.85955358,   1.45863938
   1258,   5.67891359,  0.748839021,   2.46422386
   1259,   7.33144093,   3.44607496,   1.06425655
   1260,   5.92626905,   3.66709805,   1.23224854
   1261,   6.39464474,   3.95419192,   1.05263543
   1262,   6.60145235,   3.49080658,  0.871398747
   1263,    6.8477335,   3.15127778,  0.980689287
   1264,   6.99096823,   3.72426605,  0.889995277
   1265,   7.13720036,   4.20280313,     2.754354
   1266,   6.79889917,    4.2492013,   3.58792543
   1267,   6.19167089,   3.91711664,   3.68604898
   1268,   5.97829294,   3.04621863,   3.09177995
   1269,   7.41435432,   3.35108876,   3.30301929
   1270,   7.28166151,   3.77578807,   3.53326964
   1271,   6.99862671,   3.08448076,   3.52589774
   1272,   8.53863907,   2.20224977,   2.62459373
   1273,   9.41034508,    4.8612566,  0.967124164
   1274,    9.4818058,   4.04487276,  0.509313703
   1275,   9.36645412,   4.83079624,   4.68460274
   1276,   7.24425936,   4.32573938,   1.89187992
   1277,   9.09745121,   2.42966056,    2.3171804
   1278,    7.7931428,   3.25037169,   1.06975543
   1279,   5.76570797,   2.22557378,   1.89447892
   1280,   6.12112093,   4.36762047,   3.05768561
   1281,   7.72270155,   4.39825106,   3.24284649
   1282,    7.2214694,   4.91645622,   2.44605947
   1283,   6.62013292,   4.88352108,     3.025213
   1284,   5.39174271,   2.12288737,   3.84378839
   1285,    4.8156209,   2.50403333,   4.32822561
   1286,   5.50726509,   2.95512676,   3.98234558
   1287,    4.8791914,   2.98539114,   3.95642781
   1288,   9.50574017,   8.85588837,   2.52168775
   1289,    8.8953371,   3.82137918,   3.16892147
   1290,   8.21989918,   3.65259981,   3.39080906
   1291,   7.30981779,   4.69284248,   1.24851155
   1292,   6.78204203,   5.75905085,   1.10597801
   1293,   6.63936377,   4.99701071,   1.72262096
   1294,   7.43384314,   5.48742437,   1.47655618
   1295,    7.0390048,   5.84344673,   2.60587072
   1296,   7.57152891,   6.29089975,   2.07772422
   1297,    9.2201376,   8.52714825,   4.70669317
   1298,   5.30176973,   3.06439948,   2.47878051
   1299,   6.66812611,   3.38145518,   3.75038385
   1300,   5.67707062,   1.50193512,    2.3304522
   1301,   7.21572065,     1.284536,   3.12688756
   1302,   6.24951696,  0.950262189,   3.30252647
   1303,   6.00351238,   3.21497583,  0.647410572
   1304,    5.8717308,   2.98108459,   1.16701376
   1305,    5.6861558,    2.7024641,  0.435482502
   1306,   6.08199549,   3.37764645,    0.2511971
   1307,   6.23348808,   2.91871905,   0.29660207
   1308,   6.32888556,   3.64441824,  0.383728564
   1309,   5.61796665,   3.73446298,  0.367088079
   1310,   5.28283548,   2.95776558,   4.67227221
   1311,   4.94579411,    2.6488483,   4.68852615
   1312,   5.01290798,   3.32855034,   4.55809832
   1313,   5.93910074,   2.78584695,   4.67137098
   1314,     5.621099,   2.37659907,   4.67163706
   1315,   6.85344076,   3.17190075,  0.501206338
   1316,   7.07983351,  0.432202697,  0.715683997
   1317,   7.89096117,   2.13121343,  0.393676102
   1318,    7.3822341,   5.17937613,  0.825355232
   1319,   6.76946211,   5.07970715,  0.400759846
   1320,   7.20019341,   4.67355347,  0.470862657
   1321,   7.89971781,    4.5032115,  0.802838385
   1322,   8.16284275,   5.18281841,  0.354428142
   1323,    8.1957407,   5.35217094,  0.958648741
   1324,   6.22878695,   5.18381166,    1.0109272
   1325,   7.60898542,   6.38674927,    1.0566628
   1326,   7.36174345,     5.643291,  0.411858976
   1327,   8.13519096,    5.2704978,   1.89392972
   1328,    7.4619751,   2.57016563,  0.368617833
   1329,    6.2291193,   3.49609017,   4.07381821
   1330,   6.95443773,   3.66275191,   4.05684853
   1331,   9.29491234,   4.44593143,  0.348592907
   1332,   9.18528557,   4.10906601,   1.12800837
   1333,   9.01049137,   3.70968986,  0.358076781
   1334,   9.09140491,   5.03801155,   2.58376241
   1335,   9.09955978,   4.88968277,   1.65886462
   1336,   8.24748039,   3.94508624,   1.04167438
   1337,   8.51467514,   4.56700087,   1.21668684
   1338,    8.1022377,    5.0757885,   2.76940584
   1339,   4.71995497,   3.58173871,   2.34476471
   1340,   7.95882654,   3.56174922,  0.746751726
   1341,   7.63230848,   3.80529237,   1.10177004
   1342,   7.66874552,   1.62501943,  0.419609755
   1343,   7.07873917,   1.90811956,  0.297476828
   1344,   7.44888067,   2.18218493,  0.232722178
   1345,   7.57642412,   3.96223354,  0.452290833
   1346,   8.41182518,    3.7964921,  0.439430088
   1347,   7.47200394,   3.48856115,  0.415529132
   1348,   7.37818766,   3.90260839,   4.13144588
   1349,   7.30482912,   3.33674073,    3.9517405
   1350,   7.71941042,   3.55718994,   4.04956484
   1351,   8.16021061,   3.93953037,    3.9015758
   1352,   7.07683372,   4.38543034,    4.1818161
   1353,   5.55410671,   1.72995889,   1.16316748
   1354,   5.27683306,   2.58848786,   1.24332178
   1355,   8.37109566,   2.28066015,  0.446878076
   1356,   8.19769573,    1.8745954,  0.740895569
   1357,   8.70119381,    1.2429868,  0.982312799
   1358,   9.31970787,    1.9180336,  0.335490823
   1359,   9.32547092,    1.6851089,   1.02573895
   1360,   8.78421116,   1.82443523,  0.320788682
   1361,   5.28923416,   4.45072317,  0.456332803
   1362,   5.41220093,   3.26779461,  0.482390612
   1363,   6.70523834,    1.7202673,  0.331784576
   1364,   6.94628954,    3.0217514,   3.98598289
   1365,   7.06268787,  0.879240274,   2.71831512
   1366,   8.73365116,   0.85157603,   2.83529377
   1367,   7.93176079,   1.18331671,   3.30459023
   1368,   8.06316566,  0.862977922,   2.40222907
   1369,   7.37862587,   3.01460242,  0.928500831
   1370,   7.61696434,   3.89592505,   4.58002043
   1371,   7.66169024,   3.29765105,   4.58935976
   1372,   7.89135361,   4.50133944,   4.08887148
   1373,   6.99067831,   4.04563284,   4.58689165
   1374,   7.30271435,   4.35179949,   4.62302589
   1375,   5.24945879,   3.69104767,   3.44588041
   1376,   5.63936472,   4.40830755,   2.42698264
   1377,    9.2575407,   2.29314852,   4.03893995
   1378,   7.94251537,  0.733677685,   3.87706923
   1379,   8.74733543,  0.442488492,   4.26070213
   1380,   9.45936966,  0.838647544,   4.11508322
   1381,   6.79923105,   6.04645538,  0.560531139
   1382,   8.55617714,   2.63407588,    4.5105257
   1383,   8.65794277,    3.4783411,   3.93802905
   1384,   9.04917526,   3.32550907,   4.56079292
   1385,   9.10847855,    3.0306561,   3.84243774
   1386,    8.6911993,   4.10063934,   4.63693094
   1387,   8.32031822,   3.65097952,   4.65869093
   1388,   9.40502071,   3.79500151,   4.65987921
   1389,   9.44442463,   3.59162116,   4.12654448
   1390,   9.16810131,   4.05434847,   3.83212423
   1391,   8.54188347,   4.49832869,   3.55934334
   1392,   7.99372673,   7.26675081,   4.39204216
   1393,   7.53309536,    6.5465827,   4.55998945
   1394,   8.34015369,   5.21888256,   3.81219983
   1395,   7.30486441,   4.94350147,    3.7934413
   1396,   7.89348745,   2.84173918,    4.6894598
   1397,   7.37655735,   2.87730432,   4.54180384
   1398,   7.35930729,   2.85029864,   4.07316685
   1399,   7.38772106,   2.47259498,   4.68834591
   1400,   5.09487915,   2.09062314,  0.751750171
   1401,   5.73800659,  0.959613025,  0.358088791
   1402,   6.10259056,  0.735917509,  0.749324083
   1403,   5.51145029,  0.939182043,  0.988671303
   1404,   9.13247681,   4.25382805,   2.45031428
   1405,   7.59017086,    4.9053607,  0.318548858
   1406,   9.19024658,   1.54562604,   2.53144908
   1407,   8.79713535,  0.974156797,   4.57838345
   1408,   8.24675751,   2.14873862,   4.55545807
   1409,   9.15449524,   1.68708706,   4.64795303
   1410,    8.6456089,   1.46847498,   4.63019657
   1411,   6.08637571,    4.6147089,   3.76405597
   1412,   6.60834408,    4.2970705,   4.53983736
   1413,   9.33223152,  0.669825017,   2.37126589
   1414,   8.77713108,  0.857054651,   1.74479711
   1415,   7.11702538,   1.28569579,  0.430417508
   1416,   7.27585173,  0.621064723,  0.334884644
   1417,    7.3963623,  0.713456988,   1.16243267
   1418,   6.37672234,   1.24431515,  0.450230867
   1419,   6.55486202,   2.84260678,   4.11265802
   1420,   6.85736847,   3.41684294,   4.53680706
   1421,   5.98105288,    4.1096406,   4.59697247
   1422,   5.51709414,   3.55389714,   4.57057714
   1423,   5.42342615,   4.40321684,   3.86545944
   1424,   6.18543243,   1.94288409,   4.64633894
   1425,   6.75000572,   2.21828032,    4.5072608
   1426,   6.47608566,   3.19320393,   4.48940945
   1427,   6.33168173,   5.53637171,  0.412621021
   1428,   6.09902716,   5.13787937,   0.41609481
   1429,   8.91400337,   5.99976206,   1.68560851
   1430,   8.57384777,   6.27339935,  0.981908023
   1431,   8.95457745,   5.89394188,   2.76988602
   1432,     6.547616,   2.73866057,   4.61034679
   1433,   7.77757645,  0.554034114,  0.842506886
   1434,   6.06178236,   4.41119337,   1.82794619
   1435,   8.46222496,  0.670049906,  0.510740221
   1436,   7.13216352,   1.28422177,   4.56981039
   1437,    6.8492527,   1.81421912,   4.62642622
   1438,   6.69386625,   1.14172125,   4.63811064
   1439,     5.883986,   1.18073106,   4.65834904
   1440,   5.76174641,    1.7703166,   4.64378214
   1441,   5.41830921,   1.22484505,   4.26833248
   1442,   6.37731075,   5.22649145,   3.80297327
   1443,   7.36234522,   4.18163872,  0.893220127
   1444,   5.39288521,   2.36742878,   2.31081367
   1445,   5.22228765,   1.90871119,   4.62526703
   1446,   8.15787125,  0.813031852,  0.997979045
   1447,   8.83402729,  0.641219497,  0.965773702
   1448,   5.16818047,   4.10372353,   1.04283547
   1449,   5.93280172,   4.30356312,  0.363851845
   1450,   5.74620962,   4.61726236,   1.15494418
   1451,   5.64202023,   2.00789905,  0.427278817
   1452,   9.68196583,     9.302495,  0.503257394
   1453,    7.8288765,   6.18254232,   3.29225349
   1454,   7.65005016,   1.08813095,   4.63798237
   1455,   7.45738173,    1.2626133,   3.92172289
   1456,   7.46641684,   1.79950178,   4.64812756
   1457,    7.1034317,  0.710957408,   3.86175132
   1458,   8.13656616,   4.27167797,  0.314772904
   1459,   8.77832699,   4.32889891,  0.392193198
   1460,   7.54188108,   4.35949802,  0.441701621
   1461,   6.77020168,   4.77797937,   4.64648581
   1462,   6.17529154,   4.79545736,   4.55739021
   1463,   5.93658924,   4.90849018,   4.35755873
   1464,   8.25218296,   7.27135706,  0.904925466
   1465,    8.2596941,   6.90191078,   2.28016663
   1466,   7.85263777,   5.82738256,  0.345981866
   1467,   9.16284466,   2.65560341,  0.324895293
   1468,   4.76133823,   3.17055464,  0.886463821
   1469,   4.41000032,   3.29771829,   4.08946943
   1470,   7.17306948,   4.01130915,  0.511951387
   1471,   8.57761002,   4.79693937,  0.379029691
   1472,   7.57867527,   4.84491825,   4.52686977
   1473,   8.10068417,   4.81732845,   4.67582178
   1474,   8.77998257,   4.65594196,   4.58605433
   1475,   7.88656616,   4.33607006,   4.61978245
   1476,   6.38581705,   3.30076075,  0.487228215
   1477,   5.15247822,   1.72691274,   4.17306328
   1478,   5.00132608,    3.7526257,  0.333680451
   1479,   9.35789394,   4.37006283,   4.56703615
   1480,   7.81901121,    5.3809886,   4.65708351
   1481,   7.24068832,   3.30054522,   4.55613852
   1482,   6.03288031,   3.44386244,   4.67285585
   1483,   6.42483521,   3.65645051,   4.60159922
   1484,    8.7221365,   2.11623502,   4.56661558
   1485,   7.04060745,   5.72432947,   3.34550929
   1486,   6.35345411,   5.06581688,   2.53998518
   1487,   6.65691423,   2.16824985,  0.296773732
   1488,   6.78162956,   2.56673169,   0.32476607
   1489,   9.35656643,   6.89323425,   3.96226048
   1490,   9.19637775,   6.80376577,   2.79799294
   1491,   9.21663666,   5.84916162,   3.96611071
   1492,   8.58190727,   6.10220432,   3.77626991
   1493,   9.07077599,    7.3072176,   3.82159257
   1494,   8.38987732,   7.12146997,   4.59151363
   1495,   8.99365425,   6.76316595,   4.54132223
   1496,   8.34815407,   6.98906469,   3.37610316
   1497,   7.87151051,   6.82500648,   4.01423168
   1498,   6.34493256,   4.65405512,  0.371757179
   1499,   8.81467819,   5.84185028,   4.65598631
   1500,   6.59670401,  0.651530623,      4.55653
   1501,    4.6893878,   3.80755115,   4.09877443
   1502,   4.63863611,    3.9025507,  0.682254195
   1503,    5.3290925,  0.334269732,  0.707660854
   1504,    8.3314333,   7.53394461,   4.00732851
   1505,   7.88617992,   2.71811199,  0.437372684
   1506,   7.90213871,   3.25047874,  0.392321169
   1507,   9.52585793,   1.94694376,   4.20007658
   1508,   4.64627075,   3.38357782,  0.348917872
   1509,    6.7164526,   5.69399023,   3.99293685
   1510,   6.89454508,   5.53859758,   4.64889908
   1511,   8.15754509,   1.40628004,    4.6054225
   1512,   8.80204391,   5.46137714,  0.331480533
   1513,   6.05463648,   1.55805349,  0.358739972
   1514,   8.45407391,   3.02766633,  0.349149704
   1515,    9.2778616,  0.783525586,  0.368671685
   1516,   7.96637201,  0.838871121,  0.369963914
   1517,    8.8094511,  0.960760176,  0.421382129
   1518,   9.30786324,   6.08214712,   0.32416302
   1519,   8.52902985,   5.76856518,  0.311530977
   1520,    9.0393219,   6.59230947,  0.350712389
   1521,   9.19497776,   6.56636381,   1.06210089
   1522,   9.22400665,    5.7218504,   1.00926757
   1523,   8.37723637,   7.00075436,  0.480953991
   1524,   6.96804905,   2.56199503,   4.54547882
   1525,   5.48012352,    1.4845345,  0.306090355
   1526,   6.55262661,   4.01283884,  0.351101965
   1527,    6.9110775,   3.66466308,  0.400490642
   1528,   6.87699747,   3.00324845,   4.50782824
   1529,   7.49929619,   3.09355688,   0.34388265
   1530,   8.34969234,  0.697004676,   4.54878426
   1531,   7.34363604,   6.04977226,   3.99781799
   1532,   7.97067165,   6.12408876,   4.61123133
   1533,   8.62419605,   5.17876053,   4.61525202
   1534,   7.26486397,   6.60739946,   0.59944272
   1535,   7.84654045,   6.97197342,  0.360684007
   1536,   7.66429996,   6.32812595,  0.375448853
   1537,   8.21671009,   7.58361626,  0.348475099
   1538,   9.36968708,   7.16897821,   4.54687977
   1539,    9.6121645,   6.42125273,   4.37099171
   1540,   9.13241196,   7.96265411,   2.52754331
   1541,   8.39828014,   3.10926795,   4.66895676
   1542,   9.39302826,   0.89196223,  0.988098621
   1543,   8.28744125,   1.34905124,  0.385571867
   1544,   8.98721027,   7.75093937,  0.299012303
   1545,   9.23284149,   3.11039877,   0.33607614
   1546,   9.48645306,   7.13990068,   0.38305521
   1547,   8.91258144,   7.08958149,  0.480887473
   1548,   9.54049778,   1.45260727,  0.669732392
   1549,   9.50755692,   2.16877937,  0.625577807
   1550,   8.45315552,   7.81227922,    4.4280467
   1551,   8.58033466,   7.60669518,   4.57748413
   1552,   8.05094624,   6.76848936,   4.61513329
   1553,   7.07344341,   6.38344669,   4.26927996
   1554,   9.13608837,   2.78758502,   4.69743967
   1555,   9.52765179,   2.87359023,   4.39193535
   1556,   7.08447933,   6.13749743,  0.413628191
   1557,   6.84541655,   5.83238173,  0.319181651
   1558,   5.64205933,   5.03075838,  0.673940301
   1559,   5.71409988,   4.75919294,  0.441203713
   1560,   7.80303335,  0.478571773,   4.30211115
   1561,   6.81534863,  0.456855536,   4.28541994
   1562,   6.51870775,  0.767585039,  0.342064053
   1563,   5.04904366,   2.58248854,  0.392841846
   1564,    4.1847806,   3.51816988,  0.556307375
   1565,   9.35251617,   5.46851492,   4.64786291
   1566,   9.50987434,   5.60872459,   4.24473429
   1567,   9.65110302,   4.36320925,   4.44813919
   1568,   9.25212097,   1.41512787,  0.359502017
   1569,   9.34354687,   6.11853695,    4.5932045
   1570,   5.44506884,   4.28609419,   4.70533228
   1571,   6.38882494,    5.3443532,   4.44266796
   1572,   9.30065155,   7.67733765,  0.625048876
   1573,   6.00417662,  0.576817036,   4.67289257
   1574,   7.18006802,   5.97335386,   4.68066883
   1575,   9.07624722,   8.10163307,   4.64013624
   1576,     4.999053,   4.39192343,   4.26464844
   1577,   4.96590328,   3.88603568,   4.66696882
   1578,   8.33265972,   6.43955183,  0.396275729
   1579,   9.31834316,   5.12556314,  0.392428845
   1580,   8.71716976,   6.32003832,   4.61836481
   1581,   9.09519386,   7.48177433,   4.65185881
   1582,   9.29320049,  0.708691001,   4.66673183
*Element, type=C3D4
  1, 893, 894, 895, 261
  2, 213,  30, 896,   1
  3, 249, 897, 898, 893
  4, 893, 894, 899, 217
  5, 217, 893, 895, 900
  6, 893, 901, 894, 898
  7, 893, 897, 261, 902
  8, 893, 241, 897, 902
  9, 903, 220, 242,  25
 10, 904, 905, 309, 311
 11, 905, 906, 907, 908
 12, 904, 906, 907, 905
 13, 906, 909, 910, 911
 14, 910, 894, 912, 906
 15, 906, 911, 913, 909
 16, 914, 911, 906, 894
 17, 915, 233, 916, 917
 18, 915, 310, 918, 917
 19, 255, 918, 915, 919
 20, 919, 255, 254, 915
 21, 286, 910, 298, 911
 22, 915, 920, 921, 243
 23, 915, 314, 921, 920
 24, 915, 916, 314, 312
 25, 915, 918, 922, 919
 26, 922, 915, 310, 918
 27, 923, 924, 315, 313
 28, 924, 905, 313, 923
 29, 905, 923, 925, 313
 30, 926, 924, 922, 904
 31, 927, 918, 928, 255
 32, 905, 926, 310, 904
 33, 338, 929, 930, 922
 34, 907, 931, 908, 932
 35, 907, 933, 307, 931
 36, 914, 904, 912, 906
 37, 906, 909, 913, 908
 38, 906, 913, 341, 339
 39, 907,  90, 929, 303
 40, 904, 905, 907, 307
 41, 910, 934, 935, 896
 42, 298, 896,  19, 910
 43, 910, 934, 213, 894
 44,  19, 286, 896, 298
 45, 924, 936, 905, 923
 46, 937, 347, 935, 938
 47, 288, 936,  20, 939
 48, 910, 936, 912, 213
 49, 213, 214,  19, 301
 50,  20, 936, 301, 214
 51,  49, 940,  48, 225
 52, 213, 910, 301,  19
 53, 901, 894, 912, 899
 54, 901, 342, 941, 927
 55, 942,  81, 335,   2
 56, 901, 899, 922, 943
 57, 893, 894, 901, 899
 58, 944,  56, 897, 227
 59, 944, 897,  56,  55
 60, 226, 897, 945, 898
 61, 220, 946, 216, 215
 62, 944, 226, 945, 224
 63, 944, 897, 249, 227
 64, 944, 945, 897,  55
 65, 923, 946, 939, 947
 66, 923, 948, 947, 277
 67, 925, 288, 275, 276
 68, 923, 948, 277, 276
 69, 949, 288, 275, 925
 70, 306, 950,  46, 930
 71, 950, 930, 306, 918
 72, 220,  25, 903, 219
 73, 337, 929,  90,  89
 74, 324, 216, 946, 327
 75, 950, 917,  44, 234
 76, 934, 911, 938, 345
 77, 951, 263, 265, 262
 78, 934, 911, 935, 938
 79, 934, 951, 349, 264
 80, 937, 349, 935, 347
 81, 220, 332, 216, 330
 82, 333, 942, 331,  80
 83, 281,  80,  79, 942
 84, 286, 292, 938, 290
 85, 942, 952, 281,  22
 86, 216, 331, 942, 952
 87, 216, 942, 333, 335
 88, 335,   2,  23, 942
 89,  23, 942, 216, 335
 90, 942,  22,  81,   2
 91, 894, 895, 261, 934
 92, 213, 934, 896, 895
 93, 894, 895, 213, 217
 94, 894, 217, 893, 895
 95, 893, 901, 943, 899
 96, 901, 899, 912, 922
 97, 898, 951, 344, 894
 98, 938, 347, 345,  83
 99, 344, 951, 347, 894
100, 344, 901, 941, 898
101, 901, 912, 894, 914
102, 901, 922, 914, 927
103, 894, 263, 934, 261
104, 953, 258,  64,   1
105, 951, 898, 897, 894
106, 906, 913, 907, 908
107, 906, 908, 905, 912
108, 905, 949, 936, 908
109, 904, 922, 308, 306
110, 349, 935, 347, 934
111, 904, 304, 929, 922
112, 907, 904, 305, 929
113, 937, 349, 347,  82
114, 904, 929, 304, 305
115, 953, 935, 272,  63
116, 953, 286, 273, 272
117, 934, 953, 260, 935
118, 953, 260, 935,  63
119, 934, 896, 953, 935
120, 953, 896,   1, 273
121, 226, 945,  53, 898
122, 897, 249, 226, 944
123, 898, 249, 226, 897
124,  59, 265, 348,  54
125,  55,  54, 240, 944
126, 265, 945,  54,  55
127, 348, 898,  53, 945
128, 265, 348,  54, 945
129, 941, 898, 247, 226
130, 340, 941, 342, 927
131, 927, 954, 340, 941
132, 941, 954,  50, 223
133, 223, 941,  51,  50
134, 939, 215, 214,  20
135, 941, 246, 943, 223
136, 941, 898, 226,  52
137, 941, 898,  52, 344
138, 342, 344, 901, 941
139, 904, 922, 306, 304
140, 310, 904, 922, 308
141, 929, 339, 914, 338
142, 336, 930, 929, 304
143, 907, 914, 929, 339
144, 929, 303,  89, 302
145, 934, 896, 895, 258
146, 954, 943, 223, 941
147, 941, 954, 340,  50
148, 239, 248, 221, 954
149, 954, 248, 221, 223
150, 918, 234, 245, 244
151, 954, 940, 338,  49
152, 945, 224, 226,  53
153, 225, 954,  49, 940
154, 338, 954, 340, 927
155, 921, 955,  38, 236
156, 219, 955, 320, 921
157, 915, 243, 921, 231
158, 921,  39, 318,  40
159, 231, 916,  41, 921
160, 916, 915, 314, 921
161, 920, 921, 316, 314
162, 905, 311, 313, 925
163, 925,  71, 948, 276
164, 956,  69,  70, 275
165, 949, 923, 936, 288
166, 288, 923, 925, 949
167, 931, 956, 283,  68
168, 309, 956, 931,  68
169, 906, 907, 914, 904
170, 309, 931, 307,  68
171, 951, 349, 348, 346
172, 921, 955, 320,  38
173,  41, 916, 314, 921
174, 915, 921, 916, 231
175, 316, 921,  40,  41
176, 916, 314,  42,  41
177, 911, 938, 345, 343
178, 957, 913, 909, 291
179, 957, 913, 291, 266
180, 900,  29,  28,   4
181, 269, 957, 938, 290
182, 913, 957,  86, 266
183, 957, 911, 909, 913
184, 957, 911, 341, 343
185,  22, 942, 216,  23
186, 339, 341,  86, 913
187, 265, 264,  59, 348
188, 894, 951, 347, 934
189, 342, 914, 927, 901
190, 897, 263, 894, 261
191, 951, 349, 346, 347
192, 951, 898, 348, 265
193, 951, 898, 346, 348
194, 958, 946, 327, 325
195, 942, 333, 335,  81
196, 959, 958, 279,  76
197, 216, 946, 327, 958
198, 325, 959,  76, 958
199, 959, 947, 278, 295
200, 959, 279, 958, 293
201, 959, 958, 216, 293
202, 959, 293,  21, 295
203,  21, 959, 216, 293
204,  45, 306, 950,  46
205, 930, 238, 940, 928
206, 930, 940, 338, 927
207, 940, 930, 336, 304
208, 958, 293, 279, 280
209, 930, 338, 922, 927
210, 930, 918, 922, 306
211, 901, 927, 943, 922
212, 894, 345, 344, 901
213, 899, 943, 255, 922
214, 934, 951, 347, 349
215, 960,  88,  65, 284
216, 900, 899, 256,  28
217, 897, 951, 263, 265
218, 899, 252, 943, 256
219,  44, 308, 310, 917
220, 950, 918, 917, 234
221, 940, 304, 302,  47
222, 308, 950, 306, 918
223, 918, 922, 927, 930
224, 930, 306, 922, 304
225, 237, 917, 244, 234
226, 917, 244, 234, 918
227, 950, 245, 918, 234
228, 918, 928, 255, 245
229, 931, 307,  68, 933
230, 287, 956, 283, 931
231, 925, 311, 313,  70
232, 956, 949, 287, 275
233, 956, 309,  69,  68
234,  70, 956, 925, 311
235, 939, 947, 946, 215
236, 939, 215,  20,  21
237, 294,  21, 947, 939
238, 936, 297,  20, 301
239, 923, 939, 294, 947
240, 934, 894, 911, 345
241, 297, 936, 299, 301
242, 935, 910, 286, 911
243, 934, 935, 262, 264
244, 911, 341, 914, 906
245, 911, 934, 935, 910
246, 906, 910, 908, 912
247, 897,  55, 265, 263
248, 944,  54, 240, 224
249, 944, 897, 945, 226
250, 897, 902,  57, 261
251, 897, 263,  56,  55
252, 893, 899, 256, 900
253, 952, 216, 331, 329
254, 893, 249, 897, 241
255, 228, 902, 227, 241
256, 902, 227, 241, 897
257, 897, 902, 227,  57
258, 917,  42, 312,  43
259, 915, 916, 233, 232
260, 244, 917, 915, 918
261, 234, 950,  45,  44
262, 917,  43, 310,  44
263, 287, 931, 296, 949
264, 907, 933, 931, 932
265, 931, 300, 274, 287
266, 904, 924, 922, 912
267, 905, 923, 949, 925
268, 943, 253, 248, 252
269, 931, 932, 296, 908
270, 931, 296, 949, 908
271, 913, 960, 932, 267
272,  86, 913,  87, 339
273, 923, 948, 925, 315
274, 291, 957, 290, 909
275, 913, 289, 267, 932
276, 913, 296, 291, 289
277, 948, 278,  73,  74
278, 932, 284, 289, 267
279, 311, 956, 925, 905
280, 925, 313,  71,  70
281, 923, 939, 288, 294
282, 923, 277, 947, 294
283, 954, 225, 221, 239
284, 923, 946, 947, 948
285, 277, 278,  73, 948
286, 948, 315,  72,  71
287, 938,  83, 937, 347
288, 268, 937, 935, 938
289, 910, 299, 909, 908
290, 896, 910, 286, 935
291, 347, 935, 938, 934
292, 938, 286, 911, 935
293,  84, 957, 343, 938
294, 955, 903,  37, 229
295, 955, 230,  37,  38
296, 955, 903, 229, 250
297, 921, 219, 946, 320
298, 264, 951, 348, 265
299, 262, 934, 263, 260
300,  26, 250, 219, 251
301, 250, 219, 251, 955
302, 320, 219, 946, 322
303, 955, 324,  37, 903
304, 938, 268, 292, 935
305, 935, 268, 292, 285
306, 937, 347,  83,  82
307, 912, 217, 213, 218
308, 937,  62, 935, 264
309, 285,  62, 935, 937
310, 937, 349,  60, 264
311, 937,  60, 349,   7
312, 937,  82,   7, 349
313, 899, 919, 255, 257
314, 915, 917, 312, 310
315, 915, 254, 919, 243
316, 919, 920, 243, 218
317, 919, 218, 899, 912
318, 919, 922, 926, 924
319, 919, 912, 922, 924
320, 286, 935, 953, 896
321, 948,  73, 319,  74
322, 906, 912, 905, 904
323, 939, 215, 924, 214
324, 946, 959, 215, 947
325, 947, 294, 295,  21
326,  21, 947, 939, 215
327, 898, 897, 265, 951
328, 893, 217, 899, 900
329, 256, 900, 241, 893
330, 893, 902, 900, 241
331, 897, 261,  57,  56
332, 902, 900, 241, 228
333, 902, 900, 228,   4
334, 902, 259,  58,  57
335, 902,  58,   4, 228
336, 935, 260, 262,  63
337, 954, 225, 239, 928
338, 338, 940,  48,  49
339, 940, 336,  48,   5
340, 930, 928, 940, 927
341, 928, 225, 239, 238
342, 940, 927, 928, 954
343, 933, 282, 932, 284
344, 933, 932, 282, 300
345, 346, 348, 898,  53
346, 960, 337,  88,  87
347,  65,  90,  88, 960
348, 895, 893, 261, 900
349, 907, 913, 960, 932
350, 960, 303,  66,  65
351, 895, 259,  30,  29
352, 945, 224,  53,  54
353, 897, 263, 261,  56
354, 218, 899, 912, 217
355, 899,  28, 257, 256
356, 910, 912, 894, 213
357, 895, 900,  29, 217
358, 902, 900,   4,  29
359, 900, 228,   4,  28
360, 901, 927, 941, 943
361, 248, 943, 223, 954
362, 943, 927, 954, 248
363, 248, 927, 253, 943
364, 915, 926, 312, 314
365, 893, 941, 901, 898
366, 946, 325, 323, 322
367, 216, 952, 942,  22
368, 899, 919, 922, 255
369, 893, 901, 941, 943
370, 941, 927, 954, 943
371, 952,  22, 216, 958
372, 952, 958,  78, 280
373, 301, 214,  19,  20
374, 331, 942, 952,  79
375, 952, 329,  79,  78
376, 896, 286, 273, 953
377, 938, 268, 937,  83
378, 286, 896, 298, 910
379, 906, 911, 341, 913
380, 911, 345, 914, 343
381, 910, 298, 909, 299
382, 938, 957, 343, 911
383, 899, 922, 919, 912
384, 899, 919, 257,  27
385, 922, 338, 914, 927
386, 929, 922, 338, 914
387, 905, 956, 949, 931
388, 930, 918, 928, 927
389, 255, 927, 922, 943
390, 904, 905, 311, 310
391, 905, 309, 307, 904
392, 924, 905, 904, 926
393, 919, 920, 924, 926
394, 905, 912, 936, 924
395, 936, 924, 912, 214
396, 905, 908, 931, 949
397, 925, 948,  71, 315
398, 905, 925, 949, 956
399, 924, 218, 912, 214
400, 920, 924, 215, 214
401, 910, 912, 936, 908
402, 923, 936, 288, 939
403, 304,  46,  47, 940
404, 953, 273,  64,  63
405, 915, 920, 919, 926
406, 928, 253, 927, 255
407, 899, 255, 943, 252
408, 248, 954, 239, 928
409, 928, 248, 927, 253
410, 225, 940, 928, 954
411, 336, 302,   5, 940
412, 916, 917,  42, 312
413, 940,  46,  47, 238
414, 950, 930, 238,  46
415, 266, 913, 289, 267
416, 296, 932, 913, 908
417, 931, 309, 307, 905
418, 957,  85, 343, 341
419, 960, 932, 267, 284
420, 933, 305,  67,  66
421, 931, 296, 932, 300
422, 933, 960, 303,  66
423, 337, 907,  90, 929
424, 907, 303, 929, 305
425, 264, 349, 348, 951
426, 950, 930, 918, 928
427, 934, 262, 935, 260
428, 929, 302, 336, 304
429, 343, 911, 341, 914
430, 929, 336, 337, 339
431, 901, 914, 922, 912
432, 894, 914, 911, 345
433, 951, 897, 263, 894
434, 946, 219, 324, 322
435, 906, 907, 339, 914
436, 918, 950, 917, 308
437, 927, 940, 338, 954
438, 921, 219, 955, 251
439, 904, 922, 929, 914
440, 957, 911, 913, 341
441, 912, 214, 218, 213
442, 213, 895, 896,  30
443, 910, 896,  19, 213
444, 931, 956, 309, 905
445, 953, 273,   1,  64
446, 934, 894, 345, 347
447, 909, 911, 290, 298
448, 896, 273,  19,   1
449, 215,  21, 959, 216
450, 895, 900, 259,  29
451, 910, 911, 934, 894
452, 934, 345, 938, 347
453, 910, 936, 299, 908
454, 925, 949, 956, 275
455, 922, 914, 904, 912
456, 905, 936, 912, 908
457, 285, 937, 935, 268
458, 923, 294, 288, 277
459, 923, 925, 948, 276
460, 903,  36, 324,  37
461, 219, 955, 903, 324
462, 903,  35, 242, 328
463,  22, 280, 958, 952
464, 948, 319,  73, 317
465, 903,  25, 242, 250
466, 903,  35, 326,  36
467, 903, 328, 220, 326
468, 216, 331, 329, 328
469,  75, 959,  76, 323
470, 958,  22, 216, 293
471, 933,  67, 307,  68
472, 959, 323, 946, 325
473, 958,  77, 327,  78
474, 958, 325,  77,  76
475, 936, 299, 301, 910
476, 936, 908, 297, 299
477, 939, 924, 215, 946
478, 923, 946, 317, 924
479, 928, 245, 235, 239
480, 919, 912, 924, 218
481, 895, 217,  30, 213
482, 893, 256, 899, 943
483, 899, 256, 257, 252
484, 920, 316, 926, 314
485, 915, 243, 919, 920
486, 261, 900, 259, 895
487, 920, 215, 946, 219
488, 946, 920, 924, 215
489, 915, 314, 920, 926
490, 899,  27, 257,  28
491, 919, 924, 920, 218
492, 893, 247, 941, 898
493, 919, 243, 254,  27
494, 924, 920, 946, 926
495, 924, 946, 317, 926
496, 926, 924, 315, 317
497, 923, 939, 946, 924
498, 924, 214, 920, 218
499, 323, 321, 959, 946
500, 946, 926, 316, 317
501, 954,  50, 221,  49
502, 321, 959, 946, 947
503, 321, 946, 948, 947
504, 949, 908, 296, 297
505, 907, 305, 904, 307
506, 957, 938, 290, 911
507, 894, 911, 906, 910
508, 951, 894, 263, 934
509, 907, 933, 932, 960
510, 913, 266, 289, 291
511, 909, 290, 911, 957
512, 906, 908, 910, 909
513, 906, 914, 339, 341
514, 921, 243, 219, 251
515, 915, 255, 254, 244
516, 317, 924, 315, 923
517, 936, 949, 288, 297
518, 313, 924, 315, 926
519, 942,  22, 281,  80
520, 333, 216, 331, 942
521,  33, 332,  32, 220
522, 942,  80,  79, 331
523, 216, 333, 330, 332
524, 216, 335, 333, 332
525, 917, 308, 310, 918
526,  79, 942, 952, 281
527, 331, 216, 330, 328
528,  32, 220,  25,  33
529, 330, 328, 216, 220
530, 331, 333, 330, 216
531, 327, 952, 329, 216
532, 329, 328, 326, 216
533, 328, 326, 216, 220
534, 952, 331,  79, 329
535, 327, 216, 326, 324
536,  34,  25, 220,  33
537, 903, 328, 242, 220
538, 216, 329, 327, 326
539, 326, 324, 216, 220
540, 220,  33, 330,  34
541, 959, 947,  21, 215
542, 946, 324, 325, 322
543, 324, 220, 946, 216
544,  74, 278, 959, 948
545, 324, 219, 220, 903
546,  35, 242, 328,  34
547, 946, 959, 958, 216
548, 219, 946, 220, 215
549, 946, 323, 320, 322
550, 903, 229, 242,  35
551, 340, 342, 914, 927
552, 952, 280, 281,  22
553, 325, 959, 958, 946
554,  78, 952, 329, 327
555, 959, 323,  75, 321
556, 946, 959, 216, 215
557, 955,  38,  37, 322
558, 946, 321, 318, 320
559, 955, 322, 324, 219
560, 946, 323, 321, 320
561, 324, 219, 946, 220
562, 903,  36, 229,  35
563, 955, 230, 229,  37
564, 946, 321, 319, 318
565, 926, 905, 313, 924
566, 948, 321,  74, 319
567, 929, 302,  89, 336
568, 948, 317,  72, 315
569, 921, 955, 236, 251
570, 946, 317, 948, 923
571, 959, 278,  75, 279
572, 314, 921, 316,  41
573, 921,  40, 231, 236
574, 324, 325, 327, 946
575, 920, 219, 214, 215
576, 921, 231, 243, 236
577, 220,  32,  31, 334
578, 278, 947, 959, 948
579, 920, 218, 214, 219
580, 233, 244, 917, 915
581, 916, 314, 312,  42
582, 926, 315, 312, 314
583, 943, 253, 252, 255
584, 310, 905, 311, 313
585, 923, 315, 925, 313
586, 915, 926, 310, 312
587,  41, 921,  40, 231
588, 914, 340, 927, 338
589, 926, 315, 313, 312
590, 904, 311, 309, 308
591, 926, 317, 315, 314
592, 923, 948, 315, 317
593, 216, 335, 334,  23
594, 914, 341, 343, 340
595, 308, 950, 917,  44
596, 915, 916, 312, 917
597, 926, 312, 313, 310
598, 950, 238, 930, 928
599, 915, 254, 231, 232
600, 916, 917, 233,  42
601, 914, 341, 338, 339
602, 918, 922, 308, 310
603, 904, 309, 306, 308
604, 904, 310, 311, 308
605,  44, 950,  45, 308
606, 899, 252, 257, 255
607, 921, 320, 318,  39
608, 258, 934, 896, 953
609, 916,  41,  42, 232
610, 946, 317, 316, 319
611, 937, 268, 285,  82
612, 949, 288, 297, 287
613, 274,  68, 933, 931
614, 920, 946, 926, 316
615, 900,  29, 217,  28
616, 906, 339, 907, 913
617, 907, 913, 932, 908
618, 907, 307, 933, 305
619, 920, 219, 243, 218
620, 933, 274, 282,  67
621, 929, 338, 336, 339
622, 918, 922, 306, 308
623,  50, 941,  51, 342
624, 915, 916, 232, 231
625, 928, 239, 248, 253
626, 916, 232,  42, 233
627, 915, 254, 232, 233
628, 907, 913, 339, 337
629, 341,  86, 913, 957
630, 960,  90, 907, 303
631, 917,  43, 233,  42
632, 933, 300, 282, 274
633, 303, 933, 305, 907
634, 907, 929, 337, 339
635, 244, 918, 915, 255
636, 930, 306, 304,  46
637, 956, 309, 905, 311
638, 899,  28, 217,  27
639, 917, 237, 244, 233
640, 275, 956, 925,  70
641, 936,  20, 939, 214
642, 921, 946, 318, 320
643, 958,  76,  77, 279
644, 948, 947, 959, 321
645,  75, 278, 959,  74
646, 925, 315,  71, 313
647, 936, 939, 923, 924
648, 948,  73, 277,  72
649, 956, 283,  69, 275
650,  32, 332, 334, 220
651, 246, 256, 247, 941
652, 933,  68, 274,  67
653,  87, 960, 337, 913
654, 893, 898, 249, 247
655, 956, 283,  68,  69
656, 220,  24, 216, 334
657, 933, 960, 284, 932
658, 919, 257, 254, 255
659, 296, 909, 913, 291
660, 938, 290, 292, 270
661, 914, 341, 340, 338
662, 269, 271, 957, 290
663, 904, 306, 309, 307
664, 913, 960, 267,  87
665, 936, 939, 924, 214
666, 929,  90,  89, 303
667, 909, 299, 298, 290
668, 951, 262, 934, 263
669, 338, 336, 930, 929
670, 957, 271,  86, 266
671, 266, 913,  87,  86
672, 929, 303, 302, 305
673, 910, 298, 299, 301
674, 933, 282,  66,  67
675, 216, 332, 334, 335
676, 925,  70, 276, 275
677, 935, 272, 285, 292
678, 272, 935, 953, 286
679, 937,  82,  83, 268
680, 935,  62, 272,  63
681, 938,  83, 270, 268
682, 935, 272,  62, 285
683, 938, 292, 268, 270
684, 938, 345,  84,  83
685, 264, 935, 349, 934
686, 937, 285,  61,  82
687, 937, 264, 935, 349
688,  68, 931, 274, 283
689, 935, 272, 292, 286
690, 896, 273, 286,  19
691,  62,  61, 937, 285
692, 250, 955, 903, 219
693, 957, 269,  85, 271
694, 220, 334, 216, 332
695, 942,  80, 333,  81
696, 943, 248, 246, 252
697, 958, 280, 279,  77
698, 323, 325, 959,  76
699, 942,   2,  23,  22
700, 959, 293, 295, 279
701, 958,  77, 325, 327
702, 959, 279, 295, 278
703, 293, 280, 958,  22
704, 959,  75,  76, 279
705, 948,  74, 321, 959
706, 952, 958, 327,  78
707, 952, 280,  78, 281
708, 295, 959, 947,  21
709, 947, 295, 294, 278
710, 243,  26,  27, 218
711, 939, 288, 294,  20
712, 959,  74, 321,  75
713, 952,  78,  79, 281
714, 958,  78, 280,  77
715, 319, 321, 946, 948
716, 907, 960, 303, 933
717, 278, 947, 948, 277
718, 293, 216,  21,  22
719, 947, 294, 277, 278
720, 948, 277,  71,  72
721, 923, 276, 277, 288
722, 956, 311,  69, 309
723, 948, 277, 276,  71
724, 925, 276,  70,  71
725, 342, 914, 901, 345
726, 933, 300, 931, 932
727, 311,  69,  70, 956
728, 957,  85, 341,  86
729, 908, 299, 296, 297
730, 936, 214, 912, 213
731,  19, 910, 301, 298
732, 936, 908, 949, 297
733, 950, 235, 234,  45
734, 334, 216,  23,  24
735, 276, 923, 925, 288
736, 956, 949, 931, 287
737, 954,  49, 340,  50
738, 949, 288, 287, 275
739,   8,  65,  90,  88
740, 949, 287, 297, 296
741, 297, 288, 936,  20
742, 960,  65,  66, 284
743, 943, 252, 246, 256
744, 216, 958, 327, 952
745, 319, 317, 948, 946
746, 289, 932, 913, 296
747, 950, 928, 235, 238
748, 909, 291, 299, 290
749, 910, 936, 213, 301
750, 913, 960, 337, 907
751,  89, 336, 302,   5
752, 893, 894, 897, 898
753, 338, 940, 930, 336
754, 934, 263, 260, 261
755, 921,  39, 236,  38
756, 933, 274, 931, 300
757, 918, 244, 245, 255
758, 283, 931, 274, 287
759, 960, 337,  90,  88
760, 926, 310, 904, 922
761, 926, 317, 314, 316
762, 906, 894, 912, 914
763, 939,  21,  20, 294
764, 960, 267,  88, 284
765, 929,  89, 337, 336
766, 933, 284,  66, 282
767, 957, 343,  85,  84
768,  30, 896,   1, 258
769, 953,  63, 272, 273
770, 957, 938,  84, 269
771, 917, 237,  44, 234
772, 345, 914, 901, 894
773, 915, 231, 254, 243
774, 938,  83,  84, 270
775, 903, 328, 326,  35
776, 258, 934, 261, 895
777, 934, 260, 953, 258
778, 957, 269,  84,  85
779, 290, 286, 911, 938
780, 298, 911, 290, 286
781, 908, 905, 931, 907
782, 937,  61,   7,  82
783, 929, 930, 922, 304
784, 343, 938, 345,  84
785, 264,  61, 937,  62
786, 300, 287, 931, 296
787, 957, 271, 266, 291
788, 917,  44, 237,  43
789, 929, 304, 305, 302
790,   1, 953, 258, 896
791, 932, 289, 282, 300
792, 912, 905, 904, 924
793, 956, 283, 275, 287
794,  45, 950, 306, 308
795, 220, 328,  34, 330
796, 908, 296, 909, 913
797,  60, 264, 349, 348
798, 933,  67, 305, 307
799, 302, 304, 940, 336
800, 337, 960,  90, 907
801, 957,  86, 271,  85
802, 954, 927, 928, 248
803, 945, 897, 265, 898
804,  31,   3,  25, 220
805, 346, 898, 951, 344
806,  54, 265,   6,  59
807, 960, 267,  87,  88
808, 907, 904, 929, 914
809, 337, 913, 339,  87
810,  53, 898,  52, 226
811, 938,  84, 269, 270
812, 945, 265, 897,  55
813, 347, 894, 345, 344
814, 938, 290, 270, 269
815, 902, 900, 259, 261
816,  31,   3, 220,  24
817, 900, 893, 261, 902
818, 911, 910, 298, 909
819, 951, 264, 262, 265
820, 264, 935, 262,  62
821, 941,  51, 344,  52
822, 894, 912, 899, 217
823, 941,  52, 222,  51
824, 935,  63, 262,  62
825, 901, 345, 344, 342
826, 348, 264,  59,  60
827, 950, 918, 245, 928
828, 953,  63,  64, 260
829, 909, 908, 299, 296
830, 954,  50, 223, 221
831, 902,  58, 259,  29
832, 894, 912, 217, 213
833, 937,  60,   7,  61
834, 893, 247, 249, 256
835, 953, 258, 260,  64
836, 896, 213,   1,  19
837, 921,  38, 320,  39
838, 899, 919,  27, 218
839, 918, 922, 919, 255
840, 946, 316, 318, 319
841, 928, 253, 245, 239
842, 904, 304, 306, 307
843, 950, 235, 928, 245
844, 928, 253, 255, 245
845, 899, 900, 217,  28
846, 895, 896,  30, 258
847, 932, 300, 296, 289
848, 255, 922, 927, 918
849, 917,  43, 237, 233
850, 920, 921, 219, 946
851, 914, 342, 340, 343
852, 933, 960,  66, 284
853, 318, 921, 316, 946
854, 921,  39,  40, 236
855, 902,  57,  58, 228
856, 944, 227, 240,  56
857, 934, 951, 264, 262
858, 271, 291, 957, 290
859, 934, 213, 894, 895
860, 238, 930, 940,  46
861, 941, 223, 222, 246
862, 253, 927, 255, 943
863,  46, 930, 940, 304
864, 336, 338, 940,  48
865, 902,   4,  58,  29
866, 902, 259, 900,  29
867, 900, 228,  28, 241
868, 903, 326, 324,  36
869, 944, 240, 227, 249
870, 944, 240,  55,  56
871, 897,  56,  57, 227
872, 935, 292, 938, 286
873, 942,  22,  80,  81
874,  55, 265,   6,  54
875, 313, 926, 310, 905
876, 895, 259, 258,  30
877, 951, 344, 347, 346
878,  28, 900, 241, 256
879, 893, 249, 241, 256
880, 943, 223, 246, 248
881, 941, 222,  52, 226
882, 944, 224, 249, 226
883, 897, 227, 241, 249
884, 919, 254, 257,  27
885, 265, 898, 348, 945
886, 307, 905, 907, 931
887,  50, 941, 342, 340
888, 332,  33, 330, 220
889, 893, 943, 941, 256
890, 932, 289, 284, 282
891, 909, 296, 299, 291
892, 895, 258, 259, 261
893, 940, 302,   5,  47
894,  49, 954, 340, 338
895, 238, 940, 928, 225
896, 913, 266,  87, 267
897, 928, 239, 235, 238
898, 950,  45,  46, 235
899, 899, 218,  27, 217
900, 915, 919, 922, 926
901, 940,  48, 225, 238
902, 256, 943, 941, 246
903, 940,  48, 238,  47
904, 914, 345, 342, 343
905, 940,  47,   5,  48
906, 902, 261, 259,  57
907, 941, 222, 247, 246
908, 941, 223,  51, 222
909, 941, 256, 247, 893
910, 936, 905, 923, 949
911, 214, 936, 301, 213
912, 941, 344,  51, 342
913, 950, 245, 234, 235
914, 904, 305, 304, 307
915, 334,  24,  31, 220
916, 950,  46, 238, 235
917,  31, 220,  25,  32
918, 937,  61, 264,  60
919, 917, 312, 310,  43
920, 916, 232, 231,  41
921, 901, 894, 898, 344
922, 910, 934, 896, 213
923,  66, 933, 305, 303
924, 921, 243, 251, 236
925, 955,  38, 322, 320
926, 921, 316, 946, 920
927, 955, 251, 230, 236
928, 915, 233, 244, 254
929,  25, 903, 219, 250
930, 322, 955, 320, 219
931, 243,  26, 218, 219
932, 919,  27, 218, 243
933, 243, 219, 251,  26
934, 322, 955, 324,  37
935, 346, 898,  52,  53
936, 955, 251, 250, 230
937, 921, 318, 316,  40
938, 344, 346, 898,  52
939, 260, 258, 934, 261
940, 955,  38, 236, 230
941, 948,  72, 317,  73
942, 895,  29,  30, 217
943, 955, 250, 229, 230
944, 921, 920, 219, 243
945, 903,  37, 229,  36
946, 328, 242, 220,  34
947, 903, 250, 242, 229
948, 220, 242,  25,  34
949, 326, 903, 324, 220
950, 219,  26,  25, 250
951, 941, 226, 247, 222
952, 902, 227,  57, 228
953, 224, 945, 944,  54
954, 945, 348,  54,  53
955, 898, 249, 247, 226
956, 926, 922, 915, 310
957, 960,  65,  90, 303
958,  54, 945, 944,  55
959, 893, 894, 261, 897
960, 954,  49, 221, 225
961, 944, 224, 240, 249
 962,  961,  962,  963,  964
 963,  961,  965,  966,  967
 964,  961,  968,  965,  969
 965,  961,  964,  970,  971
 966,  961,  972,  964,  971
 967,  961,  964,  968,  969
 968,  973,  391,  384,  974
 969,  975,  976,  363,  365
 970,  975,  977,  391,  978
 971,  979,  980,  981,  982
 972,  436,  458,  983,  984
 973,  982,  985,  986,  980
 974,  982,  979,  987,  503
 975,  503,  982,  981,  988
 976,  982,  980,  981,  989
 977,  982,  990,  991,  987
 978,  982,  985,  980,  989
 979,  982,  988,  987,  991
 980,  992,  993,  994,  995
 981,  996,  997,  995,  993
 982,  997,  969,  998,  992
 983,  997,  968,  969,  999
 984,  997,  992, 1000,  999
 985,  997, 1001,  968, 1002
 986,  997, 1000,  992,  993
 987, 1003, 1004,  439,  440
 988, 1005, 1006, 1007, 1008
 989, 1009, 1010, 1011, 1003
 990, 1011,  454,  461, 1009
 991, 1012, 1003, 1010, 1009
 992, 1013, 1014, 1015,  979
 993,  459, 1003, 1012, 1009
 994, 1003, 1009,  459,  447
 995, 1003,  451, 1004,  440
 996,  962,  964, 1016,  963
 997, 1017, 1016, 1018,  986
 998,  961,  962,  972, 1019
 999,  962,  986, 1020,  990
1000,  990,  962,  972, 1020
1001,  972,  990, 1021, 1022
1002,  962, 1020, 1016,  972
1003,  968, 1001,  969,  964
1004,  964,  962,  972,  961
1005,  968,  999, 1002, 1023
1006,  968,  964, 1024, 1001
1007, 1013, 1025, 1026,  981
1008,  961,  963, 1019,  966
1009,  968,  963,  966, 1023
1010, 1027,   28, 1028,  217
1011, 1029, 1030,  491, 1027
1012,  990, 1031, 1032, 1033
1013,  973,   96,   97,  361
1014, 1027, 1030, 1034, 1029
1015, 1027,  491,   11,  389
1016,  369, 1027, 1029,   11
1017, 1027, 1035,   29,  217
1018, 1027,   29, 1035,  491
1019, 1036, 1037, 1038,  991
1020, 1036,  373,  991, 1039
1021, 1036,  991,  373,  383
1022,  374, 1036,  426,  509
1023, 1036, 1037,  991,  985
1024,  411,  426,  374, 1036
1025,  976, 1040,  360,  362
1026, 1008, 1005, 1041, 1007
1027, 1008, 1042, 1043, 1011
1028, 1014, 1044, 1010, 1007
1029, 1044, 1010, 1007, 1008
1030, 1008, 1041, 1010, 1007
1031, 1008, 1044, 1010, 1043
1032, 1045,  216, 1046, 1047
1033, 1045, 1048,  413,  220
1034, 1045,  220, 1046,  216
1035, 1015, 1049, 1050, 1051
1036, 1052, 1015, 1032,  986
1037, 1015, 1052, 1017,  986
1038,  982,  986, 1015,  980
1039,  976,  362,  363,  365
1040,  969, 1053, 1054, 1055
1041, 1053, 1056, 1054, 1057
1042, 1053, 1054,  467,  998
1043, 1001,  970, 1058, 1053
1044, 1053,  969, 1001,  970
1045,  998, 1053, 1054,  969
1046,  998, 1001,  969,  997
1047,  997,  992,  998,  995
1048,  969, 1055, 1059,  965
1049, 1053, 1055, 1057, 1054
1050, 1060,  358, 1061, 1062
1051, 1060, 1063, 1064, 1056
1052, 1060, 1065, 1064, 1063
1053, 1060, 1064, 1062, 1066
1054, 1060,  358, 1062, 1067
1055, 1060, 1062, 1064, 1065
1056, 1068, 1034, 1028, 1069
1057, 1070,  364,  366,  103
1058, 1034, 1069, 1071, 1030
1059, 1030, 1069,  984, 1072
1060, 1030, 1069, 1071,  984
1061, 1030,  984,  492, 1035
1062, 1027, 1028, 1030, 1035
1063, 1030, 1035,  492,  491
1064, 1030, 1028, 1069, 1072
1065,  961,  971,  970,  972
1066, 1016,  964,  962,  972
1067,  961,  968,  964,  963
1068,  970,  969, 1001,  964
1069,  964,  972, 1016,  971
1070, 1016,  971,  972, 1020
1071, 1073,  964, 1001, 1024
1072, 1016, 1017, 1073, 1012
1073,  962, 1016, 1018,  963
1074, 1018, 1016, 1024,  963
1075,  962,  963, 1074, 1019
1076, 1016,  986, 1052, 1020
1077, 1075,  220, 1076,  413
1078, 1016, 1017, 1012, 1052
1079, 1077,  993, 1000, 1068
1080, 1068, 1078, 1028,  218
1081, 1077, 1048,  218, 1068
1082,   93, 1079,  353, 1080
1083, 1077, 1081,  994, 1078
1084, 1077,  993, 1068, 1078
1085, 1060, 1066, 1061, 1082
1086, 1083, 1054, 1084, 1066
1087, 1066, 1054, 1084, 1082
1088, 1064, 1066, 1085, 1062
1089, 1064, 1085, 1055, 1065
1090, 1054, 1064, 1066, 1083
1091, 1057, 1063, 1064, 1055
1092, 1064, 1066, 1083, 1085
1093, 1066, 1082, 1086, 1061
1094, 1064, 1065, 1062, 1085
1095, 1045, 1046,  992, 1047
1096,  997,  996, 1002,  993
1097,  977,  978,  397,  391
1098, 1087, 1034,  388, 1088
1099, 1045,  993,  992, 1000
1100, 1055,  969, 1083, 1054
1101, 1059,  969,  999, 1083
1102, 1089, 1046, 1076, 1090
1103, 1089, 1091, 1046, 1083
1104, 1067,  363,  360,  361
1105, 1090,  351, 1079, 1089
1106, 1089, 1092,  353,  355
1107, 1066, 1083, 1089, 1084
1108, 1089, 1085, 1092,  355
1109, 1069, 1034, 1006, 1068
1110, 1069, 1006, 1071, 1093
1111, 1069, 1078,  993, 1094
1112, 1069,  993, 1068, 1006
1113, 1069, 1006, 1093, 1094
1114, 1002,  993, 1095, 1000
1115,  961,  969,  970,  964
1116, 1002, 1024, 1096, 1001
1117, 1072,  214, 1028, 1078
1118, 1071, 1030,  984,  492
1119, 1028, 1034,  388, 1027
1120, 1072, 1081,  468,   20
1121, 1072,  214,   20,   19
1122,  436,   14,  983,  458
1123,  468,  458,  436,  984
1124, 1072,  213,   19,  458
1125, 1097,  449, 1098,  463
1126,  430, 1097, 1040, 1061
1127, 1097, 1061,  456, 1082
1128, 1097,  463, 1099, 1056
1129, 1097, 1063, 1099, 1098
1130, 1100,  103,  104,  364
1131,  962,  980, 1018,  986
1132, 1074,  989,  980,  962
1133,  963, 1018, 1101, 1023
1134,  968,  963, 1023, 1024
1135,  963, 1018, 1074, 1101
1136, 1042, 1102, 1043, 1002
1137, 1002, 1023,  999, 1095
1138, 1024, 1043, 1017, 1018
1139,  968, 1023,  965,  999
1140, 1024, 1043, 1096, 1073
1141, 1103,  971, 1057, 1058
1142, 1053,  460, 1054, 1056
1143,  470, 1053,  998, 1103
1144, 1103, 1001,  998,  479
1145, 1103, 1001,  479,  486
1146,  975, 1104,  977,  978
1147, 1105, 1021, 1106, 1107
1148, 1108,  974, 1105, 1065
1149, 1109, 1065,  974,  973
1150, 1109,  978, 1105, 1110
1151,  975,  976, 1067,  363
1152, 1053, 1055,  970, 1057
1153,  961, 1019,  972,  967
1154,  970, 1111, 1055,  965
1155,  961,  970,  969,  965
1156, 1104,  367,  100,  366
1157,  964,  970, 1058, 1001
1158,  975,  974,  978,  391
1159, 1059, 1083, 1112, 1055
1160, 1078,  484, 1094,  468
1161,  970, 1055, 1065, 1063
1162, 1055, 1057, 1054, 1064
1163, 1064, 1083, 1055, 1085
1164, 1055, 1112, 1065, 1085
1165, 1113,  425,  126,  127
1166, 1112, 1065, 1111, 1055
1167,  970, 1108, 1065, 1111
1168, 1038,  509,  510,  129
1169,  970, 1105, 1063, 1065
1170,  992,  998,  995, 1114
1171, 1045, 1115, 1046, 1076
1172, 1089, 1076, 1046, 1091
1173, 1046, 1115, 1083, 1091
1174,  508, 1116,  510,  130
1175,  992, 1083,  998, 1114
1176, 1046,  216, 1090, 1117
1177, 1097, 1040,  449,  432
1178, 1109, 1063, 1105, 1065
1179, 1060, 1065, 1067, 1062
1180, 1118,  469,  487,  475
1181, 1109, 1063, 1065, 1067
1182, 1064, 1055, 1063, 1065
1183,  970, 1055, 1063, 1057
1184,  970, 1105, 1065, 1108
1185,  970, 1063, 1119, 1057
1186, 1120,  422, 1031, 1121
1187, 1120, 1021,  990, 1122
1188, 1120, 1123, 1021, 1106
1189, 1120, 1121, 1033, 1123
1190, 1120, 1031, 1037,  990
1191,  997,  969,  992,  999
1192, 1002,  993, 1042, 1006
1193, 1002,  999, 1000, 1095
1194,  997, 1002,  999, 1000
1195, 1002, 1042,  993,  996
1196,  993, 1006, 1094, 1042
1197,  993,  997,  995,  992
1198, 1069, 1068,  993, 1078
1199, 1077,  993, 1078,  994
1200, 1085, 1062,  357, 1124
1201, 1085,  357, 1062,  355
1202, 1097, 1060, 1063, 1040
1203, 1065, 1085, 1124, 1062
1204, 1066, 1061,  356, 1062
1205, 1089, 1085,  355, 1080
1206, 1066, 1084, 1089, 1092
1207, 1090,   23, 1117,  216
1208, 1046, 1076, 1090,  220
1209, 1090, 1075,   24,  220
1210, 1090,  216,   24,   23
1211, 1105, 1021, 1125, 1106
1212, 1105, 1110, 1106, 1118
1213, 1105, 1021, 1107,  972
1214, 1105, 1125,  972,  971
1215,  975, 1109, 1067,  976
1216, 1109, 1110, 1126, 1127
1217,  991,  373,  383,  372
1218,  970, 1105, 1108,  967
1219,  970, 1111,  967, 1108
1220,  978, 1128, 1107, 1105
1221, 1109,  974, 1105,  978
1222, 1105, 1109, 1110, 1119
1223, 1069,  984, 1093, 1071
1224, 1006, 1093, 1005, 1071
1225, 1002, 1006, 1088, 1095
1226, 1002, 1102, 1006, 1042
1227,  993, 1068, 1006, 1095
1228,  429,  397, 1129,  978
1229,  429, 1110,  424, 1128
1230, 1128, 1106,  424,  428
1231, 1106, 1110, 1105, 1128
1232, 1128, 1106,  428, 1130
1233, 1110, 1118, 1127,  425
1234,  421, 1128,  429,  428
1235, 1105, 1128, 1107, 1106
1236,  975,  978, 1110, 1104
1237, 1110, 1118, 1113, 1106
1238,  416,  421, 1130, 1107
1239, 1104,  365,  367,  364
1240, 1127,  365, 1104,  364
1241,  975,  365, 1104, 1127
1242,   97,  391,  384,  973
1243, 1110, 1119, 1118, 1105
1244, 1109,  976, 1127, 1126
1245,  975, 1104, 1110, 1127
1246,  975, 1109,  974,  973
1247,  975, 1067, 1109,  973
1248,  976, 1100, 1070, 1126
1249,  365,  976, 1127,  975
1250, 1127,  366, 1070,  364
1251, 1060, 1082, 1097, 1056
1252,  364,  976, 1127,  365
1253,  976, 1127, 1126, 1070
1254,   97,  977,  975,  363
1255,  977,   98,  365,  363
1256, 1016, 1018,  986,  962
1257,  962,  986, 1016, 1020
1258,  982, 1015, 1049,  979
1259, 1028,   27,  396,  404
1260,  973,  363, 1067,  361
1261,  982,  990,  986,  985
1262,  980,  986,  962,  985
1263, 1107,  414,  405,  415
1264,  982, 1015, 1032, 1051
1265, 1015,  980, 1013,  979
1266,  961,  970,  965,  967
1267,  985,  986,  962,  990
1268, 1120, 1106, 1130,  423
1269, 1021,  972, 1022, 1131
1270, 1022,  962,  972,  990
1271, 1110, 1127, 1118, 1126
1272,  977,  390,   98,  391
1273, 1109, 1063, 1098, 1119
1274, 1110, 1106,  424, 1128
1275,  425, 1118, 1113, 1110
1276, 1128,  421, 1130,  428
1277, 1106, 1113, 1125, 1118
1278, 1017, 1018, 1016, 1024
1279,  961,  963,  962, 1019
1280, 1017, 1043, 1073, 1009
1281, 1015, 1017, 1010, 1018
1282, 1017, 1043, 1009, 1010
1283,  979, 1004, 1014, 1015
1284, 1015, 1050, 1032, 1051
1285, 1018, 1014, 1044, 1010
1286, 1015,  980, 1018, 1013
1287,  999, 1083, 1115, 1059
1288, 1053,  998, 1001,  969
1289, 1066, 1085, 1062, 1092
1290, 1056, 1063, 1064, 1057
1291, 1126, 1067, 1098, 1109
1292, 1060, 1056, 1097, 1063
1293,  427,  426, 1037, 1120
1294, 1130, 1122,  427,  401
1295, 1130, 1122,  401,  416
1296, 1130,  121,  427,  122
1297, 1106, 1123, 1125, 1113
1298,  423, 1130,  428, 1106
1299, 1120, 1021, 1130, 1106
1300, 1130,  427,  428,  122
1301, 1021, 1106, 1107, 1130
1302, 1008, 1006, 1044, 1102
1303, 1006, 1093, 1011, 1005
1304, 1044, 1087, 1026, 1025
1305, 1018, 1132, 1044, 1013
1306,  128,  509,  426,  129
1307, 1044, 1013, 1025, 1026
1308,  962,  963, 1018, 1074
1309,  964, 1016, 1024, 1073
1310, 1024, 1002, 1096, 1043
1311,  982,  990,  987, 1032
1312, 1016, 1024, 1073, 1017
1313, 1043, 1002, 1096, 1042
1314, 1008, 1102, 1043, 1042
1315, 1017, 1018, 1043, 1010
1316, 1008, 1011, 1043, 1010
1317, 1017, 1012, 1010, 1009
1318, 1043, 1009, 1010, 1011
1319,  995,  479,  483,  998
1320,  997,  993, 1002, 1000
1321, 1005, 1034, 1007, 1006
1322, 1024, 1018, 1023, 1102
1323,  997,  968,  999, 1002
1324, 1043, 1042, 1096, 1011
1325, 1024, 1043, 1018, 1102
1326, 1044, 1087, 1034, 1133
1327, 1010,  500, 1004, 1014
1328, 1010, 1004,  500, 1041
1329, 1104,  429,  425,  100
1330, 1003, 1041,  454,  439
1331, 1104,  367,  366,  364
1332, 1015, 1010, 1012, 1004
1333, 1044, 1013, 1026, 1014
1334, 1013,  499, 1026, 1014
1335,  980, 1018, 1013, 1132
1336, 1013,  979,  980,  981
1337, 1013,  499, 1014,  501
1338,  503,  979,  501,  981
1339,  979,  501,  981, 1013
1340, 1004, 1012, 1003, 1010
1341, 1004, 1014, 1015, 1010
1342,  982, 1049, 1015, 1051
1343,  982,  503,  987,  988
1344,  979,  987,  503,  504
1345,  979,  987,  504, 1049
1346,  979, 1004,  502, 1014
1347, 1020,  990, 1021,  972
1348,  964, 1058,  970,  971
1349, 1016, 1020, 1052, 1134
1350, 1058, 1016,  971,  964
1351, 1021, 1106, 1123, 1125
1352, 1063, 1057, 1099, 1119
1353, 1037,  987,  990, 1031
1354, 1036,  991,  383,  985
1355, 1036, 1038, 1037,  426
1356, 1036,  374, 1039,  509
1357, 1037,  990,  991,  985
1358, 1133, 1034,  368,  379
1359, 1044, 1133, 1007, 1026
1360, 1018, 1044, 1102, 1043
1361,  382, 1026,  379,  395
1362, 1026,  379,  395, 1087
1363,  388, 1088,  406, 1087
1364, 1087, 1025,  406,  395
1365, 1021, 1033, 1020, 1123
1366, 1021, 1020,  972, 1125
1367, 1021, 1022,  990, 1122
1368, 1021, 1122, 1131, 1022
1369,  990, 1033, 1052, 1020
1370,  985, 1022,  962,  989
1371, 1037,  990,  985, 1122
1372, 1037,  987, 1031, 1038
1373, 1037,  411, 1122,  985
1374,  977, 1129,   99,  390
1375, 1120, 1031, 1033, 1121
1376,  982,  991,  990,  985
1377, 1120,  427, 1130, 1122
1378, 1039,  509,  118,  507
1379, 1123, 1121,  488,  423
1380, 1037, 1031,  426, 1038
1381, 1045, 1047,  992,  994
1382, 1045, 1077, 1048,  219
1383, 1045, 1046,  220, 1076
1384, 1048,  220,   25,  413
1385, 1048,  404, 1000,  420
1386, 1115, 1000,  413, 1045
1387, 1045, 1076,  413, 1115
1388, 1048,  219,   26,   25
1389, 1135,  131,  444,  130
1390,  986, 1020,  990, 1052
1391, 1031,  426, 1038,  422
1392,  980, 1074, 1018, 1132
1393, 1120, 1123,  423, 1121
1394, 1021, 1125, 1123, 1020
1395,  970,  971, 1057, 1119
1396, 1135,  508,  506,  131
1397, 1120, 1037, 1122,  990
1398, 1105, 1118, 1106, 1125
1399, 1033, 1020, 1123,  482
1400, 1071, 1005,  496, 1136
1401, 1123, 1125,  487,  482
1402,  487, 1123, 1113, 1125
1403, 1106, 1123, 1113,  423
1404, 1123,  488, 1113,  423
1405, 1106,  423, 1113,  424
1406, 1113,  125,  126,  424
1407, 1113, 1118,  487, 1125
1408, 1113, 1110,  424,  425
1409, 1014,  499,  502,  501
1410, 1113,  127,  469,  425
1411, 1113,  469,  127,  126
1412, 1104,  101,  100,  425
1413, 1003, 1010, 1041, 1004
1414,  454, 1003, 1009, 1011
1415, 1010, 1015, 1018, 1014
1416, 1096,  461,  471, 1073
1417, 1073,  461,  471,  459
1418,  451,  459, 1003, 1012
1419, 1009,  454,  461,  447
1420, 1093,  462, 1042, 1011
1421, 1034, 1007, 1006, 1044
1422, 1093, 1071,  984,  983
1423, 1093,  437,  984,  446
1424, 1006, 1011, 1093, 1042
1425, 1090, 1076, 1075,  220
1426, 1075,    3,  220,   25
1427, 1075,  220,  413,   25
1428, 1075,  413, 1076,  410
1429, 1050, 1012, 1052,  464
1430, 1050,  464,  451, 1012
1431, 1050,  451, 1004, 1012
1432, 1049,  450,  451, 1050
1433,  441, 1049,  450,  451
1434, 1050, 1032,  457,  466
1435,  982,  987, 1051, 1032
1436, 1050,  442, 1051, 1049
1437, 1131,  967, 1019,  398
1438, 1130, 1107, 1131,  416
1439,  990,  985, 1022,  962
1440, 1131, 1122,  394, 1022
1441, 1131, 1122,  407,  394
1442,  407, 1131,  394,  398
1443, 1131,  416, 1107,  407
1444, 1031, 1121,  422, 1116
1445, 1020, 1052,  473,  466
1446, 1021, 1130, 1131, 1122
1447, 1020,  971,  485,  473
1448, 1016,  986, 1017, 1052
1449, 1135,  443,  489,  444
1450, 1123, 1020, 1125,  482
1451, 1033, 1052, 1020,  466
1452, 1020,  971, 1125,  485
1453, 1101,  412,  966, 1023
1454, 1002, 1088, 1102, 1023
1455, 1002, 1001, 1096,  996
1456, 1002, 1024, 1023, 1102
1457, 1002, 1023, 1095, 1088
1458,  961,  970,  967,  972
1459,  968,  965,  969,  999
1460, 1137,  991,  505,  988
1461, 1137,  991,  372,  373
1462, 1031, 1038,  987,  508
1463, 1137,  117, 1138,  505
1464, 1137, 1039,  118,  507
1465, 1137,  507,  991, 1039
1466,  969, 1059, 1055, 1083
1467,  965, 1023,  412,  409
1468,  997,  969,  968, 1001
1469, 1053, 1057,  970, 1058
1470,  961,  966,  968,  963
1471,  961,  968,  966,  965
1472, 1023,  965,  412,  966
1473, 1023, 1102, 1018, 1088
1474, 1033, 1020,  482,  466
1475, 1120, 1121,  423,  422
1476, 1120,  427, 1122, 1037
1477, 1033,  457, 1032,  466
1478, 1032,  508, 1051, 1135
1479,  448,   10,  102,  101
1480, 1031, 1121, 1116,  489
1481, 1121,  124, 1116,  489
1482, 1121,  489,  125,  124
1483,   29,  389,   28,    4
1484,  111, 1133,  112,  495
1485, 1029,  493,   11,  491
1486, 1029,  493,  111,   11
1487, 1133, 1029,  111,  368
1488, 1027, 1029,   11,  491
1489, 1133, 1034, 1071,  493
1490, 1034, 1029,  493, 1133
1491, 1044, 1087, 1025, 1088
1492, 1087, 1133, 1026,  379
1493, 1133, 1026,  497, 1007
1494, 1133, 1071, 1005,  495
1495, 1029, 1133, 1034,  368
1496, 1034, 1087,  379, 1133
1497, 1040,  360,  105,  106
1498, 1129,  977,  365, 1104
1499, 1090, 1075, 1079,  351
1500, 1079,   93,  377, 1080
1501, 1079, 1076,  377,  410
1502,  410, 1079, 1075,  378
1503, 1089, 1080, 1079, 1076
1504, 1090,   24, 1075,  351
1505, 1059,  387,  393,  381
1506, 1079,  378,   92,   91
1507, 1089, 1079, 1090, 1076
1508,  976,  362,  365,  364
1509, 1105, 1107,  978,  974
1510, 1105,  971, 1119, 1125
1511, 1107,  974,  405,  978
1512,  407,  967, 1107, 1131
1513, 1107,  415, 1108,  414
1514, 1107,  415,  974, 1108
1515,  103, 1100,  445, 1070
1516,  448,  366,  103, 1070
1517, 1092,  351,  353,  350
1518, 1137, 1039,  991,  373
1519,  102,  448,  366,  103
1520,  352,  109, 1086, 1117
1521,  362, 1100,  364,  976
1522, 1070,  481, 1118, 1126
1523, 1118,  425,  448, 1070
1524, 1070,  425,  448,  366
1525, 1104,  977,  978, 1129
1526, 1104,  100, 1129,  429
1527,  425, 1127, 1070, 1118
1528, 1104,  366,  100,  101
1529, 1104,  425,  366,  101
1530, 1105, 1108, 1107,  974
1531,  471, 1134, 1058, 1073
1532,  471, 1134,  464,  473
1533, 1134, 1012,  464, 1052
1534, 1134, 1012, 1073,  464
1535, 1134,  486,  971,  473
1536, 1134, 1058, 1016,  971
1537, 1033,  489, 1032,  457
1538, 1020, 1134,  971,  473
1539, 1086,  107, 1061,  433
1540, 1066,  356, 1086,  354
1541, 1066, 1084, 1086, 1082
1542, 1066, 1086, 1084, 1092
1543, 1066, 1089, 1083, 1085
1544, 1066, 1086, 1092,  354
1545, 1086,  453, 1084, 1117
1546,  109, 1086, 1117,  434
1547,  989,  392,  386,  394
1548, 1086,  434,  109,  108
1549,  452,  453, 1084, 1086
1550, 1004,  134,  500,  135
1551, 1004,  441, 1049,  134
1552, 1087,  379,  395,  406
1553, 1003, 1004, 1041,  439
1554, 1014, 1015, 1018, 1013
1555, 1079,  378,  377,   92
1556, 1004,  451, 1049,  441
1557, 1090, 1075, 1076, 1079
1558, 1090, 1092, 1117,  350
1559, 1089, 1076, 1091, 1080
1560, 1114, 1084, 1046, 1083
1561, 1092, 1117,  350,  352
1562,  351, 1092, 1089, 1090
1563, 1046, 1117, 1084, 1114
1564,  379, 1026,  113, 1133
1565, 1026, 1025,  395,  370
1566,  362,  360,  976,  363
1567, 1026, 1139,  382,  114
1568, 1044, 1026, 1007, 1014
1569, 1087, 1026, 1025,  395
1570, 1026,  499,  114,  113
1571, 1133, 1026,  113,  497
1572, 1020, 1052, 1134,  473
1573, 1134, 1058,  971,  486
1574, 1053, 1103, 1058, 1001
1575, 1103, 1057,  485,  470
1576,  970, 1105,  967,  972
1577,  971, 1119, 1125,  485
1578,  509,  426,  129, 1038
1579,  991, 1038, 1036,  507
1580, 1036,  507, 1039,  991
1581, 1038,  129, 1116,  422
1582,  980, 1013,  981, 1132
1583,  982, 1032,  986,  990
1584, 1037, 1038,  991,  987
1585,  987,  507,  991,  505
1586, 1038,  507,  987,  508
1587,  987,  504, 1051,  506
1588,  982,  991,  985,  988
1589, 1047,  483,  995,  994
1590, 1046, 1117, 1047,  216
1591, 1047,  453, 1117, 1114
1592,   22,  216,  477, 1117
1593, 1075,   24,   91,  351
1594, 1026,  382,  370,  395
1595, 1047,  994,  215,  477
1596, 1135, 1031, 1032,  508
1597, 1051, 1049,  133,  504
1598, 1051,  132, 1135,  506
1599, 1050, 1051,  457, 1032
1600, 1051,  457, 1032,  443
1601, 1051, 1049,  442,  133
1602, 1012, 1015, 1052, 1017
1603, 1033,  478, 1121,  489
1604, 1065, 1124, 1140,  973
1605, 1063, 1119, 1099, 1098
1606, 1099,  475, 1057,  470
1607, 1040, 1060, 1063, 1067
1608, 1097, 1099,  463, 1098
1609, 1099,  470, 1057, 1056
1610,  391,  975,   97,  977
1611,  375, 1124,  381, 1141
1612,  976, 1109, 1127,  975
1613,   99,  977,  365, 1129
1614,  977,   98,   97,  391
1615,  975,  974, 1109,  978
1616,  975,  977, 1104,  365
1617,  977,   98,  390,   99
1618, 1027, 1030,  491, 1035
1619, 1072, 1028,  213, 1035
1620, 1028,  404,  218,   27
1621, 1028,  217,   28,   27
1622,   28, 1027,   29,  217
1623, 1028,  404, 1068,  218
1624, 1086, 1092, 1117, 1084
1625, 1061, 1082,  455,  456
1626, 1086,  433,  108,  107
1627, 1061,  430,  106, 1040
1628, 1060, 1040, 1061,  358
1629, 1113,  424,  126,  425
1630, 1061,  430,  107,  106
1631,  982,  989,  988,  985
1632,  989,  985, 1022,  394
1633,  962,  980, 1074, 1018
1634, 1084, 1117,  453, 1114
1635, 1084, 1046, 1083, 1089
1636,  985,  394,  383,  401
1637,  433, 1086,  455, 1061
1638, 1069,  984, 1072, 1078
1639, 1027, 1034, 1030, 1028
1640, 1078, 1077,  218, 1068
1641, 1027,  491,  389,   29
1642, 1035,  984,  492,  458
1643, 1035,  492,   29,   30
1644, 1035,  458,  492,   30
1645, 1066,  354, 1092, 1062
1646, 1045,  216,  215,  220
1647, 1090, 1084, 1092, 1089
1648, 1080, 1079,  353, 1089
1649, 1077,  218, 1048,  219
1650, 1076, 1091,  387, 1115
1651, 1117, 1084, 1092, 1090
1652, 1076, 1115,  403,  413
1653, 1036,  985,  383,  411
1654, 1036, 1039,  374,  373
1655,  509,  507, 1039, 1036
1656,  990, 1031,  987, 1032
1657, 1036, 1037,  985,  411
1658,  507, 1038, 1036,  509
1659, 1082, 1054,  455, 1056
1660, 1133, 1005, 1071, 1034
1661, 1071, 1005,  495,  496
1662, 1093, 1071, 1136, 1005
1663, 1071,  492,  984,  983
1664, 1065, 1067, 1062, 1124
1665, 1062, 1067,  358,  359
1666, 1085, 1124, 1141, 1112
1667, 1062, 1067,  359, 1124
1668, 1066,  354, 1062,  356
1669,  989,  988,  386,  981
1670,  991,  988,  383,  985
1671,  979,  501, 1014,  502
1672,  422, 1031,  426, 1120
1673,  988,  985,  386,  383
1674,  988,  981,  371,  386
1675, 1015, 1050, 1012, 1052
1676,  988,  981, 1138,  371
1677, 1091, 1059, 1112,  381
1678, 1091, 1112, 1080,  381
1679, 1059, 1115,  387, 1091
1680,  393, 1059, 1115,  387
1681,  992, 1083, 1046, 1115
1682, 1045, 1047,  215,  216
1683, 1109, 1105, 1063, 1119
1684,  974, 1108,  415,  419
1685,  974,  975,  973,  391
1686,  363,   97,  973,  975
1687,  975,  973,  363, 1067
1688, 1124,  359,   95,  385
1689,  405, 1107,  415,  974
1690, 1027,  369, 1029, 1034
1691, 1085,  355, 1141,  357
1692, 1113,  469, 1118,  425
1693,  985,  386,  383,  394
1694, 1068, 1034,  388, 1028
1695, 1077, 1048, 1068, 1000
1696, 1068, 1000,  417, 1095
1697,  968,  965, 1023,  966
1698, 1002, 1006, 1102, 1088
1699,  970, 1055, 1111, 1065
1700, 1053, 1103, 1001,  998
1701,  997,  479, 1001,  996
1702,  996,  479,  483,  995
1703,  997,  998, 1001,  479
1704, 1000,  417, 1095,  409
1705, 1000,  413, 1045, 1048
1706,  993, 1068, 1095, 1000
1707, 1045, 1000,  992, 1115
1708, 1000,  409,  999, 1115
1709, 1045, 1048,  220,  219
1710, 1000, 1115,  413,  420
1711, 1034, 1028, 1069, 1030
1712,  493, 1034, 1071, 1030
1713, 1133,  493, 1071,  495
1714, 1005, 1007,  498, 1041
1715,  996,  479,  472,  480
1716, 1008, 1005, 1006, 1011
1717, 1008, 1041, 1005, 1011
1718, 1133,  497,  113,  112
1719,  498, 1005,  495, 1007
1720,  974, 1140,  419,  973
1721, 1140, 1111, 1108,  402
1722, 1140, 1112,  381, 1124
1723,  119,  128,  509,  374
1724, 1065,  974, 1140, 1108
1725, 1109, 1065,  973, 1067
1726, 1060, 1097, 1061, 1040
1727, 1097, 1061,  430,  456
1728, 1097, 1056, 1082,  456
1729, 1097, 1040, 1098,  449
1730, 1040,  432,  106,  105
1731, 1040,  430,  106,  432
1732,  417, 1095,  388, 1068
1733, 1006, 1068, 1034, 1095
1734, 1090,  351,   23,   24
1735, 1028,  213, 1035,  217
1736,  412, 1101,  406, 1023
1737, 1016, 1134, 1052, 1012
1738, 1000, 1095,  999,  409
1739, 1002,  996, 1096, 1042
1740,  993,  994,  996, 1078
1741,  409, 1023,  412, 1095
1742, 1023,  412, 1095,  406
1743, 1050,  464, 1052,  466
1744, 1015, 1017, 1012, 1010
1745, 1134,  473, 1052,  464
1746, 1016, 1134, 1012, 1073
1747, 1012,  459, 1073,  464
1748, 1015, 1004, 1050, 1049
1749, 1015, 1050, 1004, 1012
1750,  990, 1033, 1032, 1052
1751, 1031, 1033,  489, 1032
1752, 1122,  394,  985,  401
1753, 1131,  394,  398, 1022
1754, 1128, 1110, 1105,  978
1755, 1120, 1021, 1123, 1033
1756, 1130,  401,  427,  121
1757, 1141,   94,   95,  357
1758, 1130, 1131, 1122,  416
1759, 1033, 1032, 1052,  466
1760, 1031, 1032,  489, 1135
1761, 1026, 1007, 1014,  499
1762, 1032, 1135,  443,  489
1763, 1045, 1077,  219,  215
1764,  995,  465, 1114,  998
1765, 1076, 1115,  387,  403
1766,  479,  997,  995,  996
1767,  992,  995, 1047, 1114
1768,  992, 1115, 1000,  999
1769,  995,  993,  994,  996
1770,  986, 1052,  990, 1032
1771,  986,  980, 1018, 1015
1772, 1017, 1009, 1073, 1012
1773,  421, 1130, 1107, 1128
1774,  979, 1049,  504,  502
1775, 1014, 1007,  500,  499
1776,  979,  502, 1004, 1049
1777,  987, 1049, 1051,  504
1778,  982, 1051,  987, 1049
1779, 1122, 1022,  985,  394
1780, 1137,  991,  988,  372
1781,  987, 1051,  508,  506
1782,  972, 1125, 1020,  971
1783, 1120,  990, 1033, 1031
1784, 1137,  988,  505, 1138
1785,  982, 1015,  986, 1032
1786, 1038,  509,  507,  510
1787, 1122,  401,  985,  411
1788, 1013,  981, 1132, 1025
1789, 1007, 1041,  500,  498
1790, 1008, 1044, 1043, 1102
1791,  981, 1026,  370, 1025
1792, 1025, 1088, 1018, 1044
1793,  994,  996,  480,  483
1794, 1137,  505,  991,  507
1795, 1038,  987,  507,  991
1796,  480,  994, 1078,  996
1797, 1087,  379,  406,  388
1798, 1046,  220, 1090,  216
1799, 1077,  994, 1081,  215
1800, 1081,   21,  994,  490
1801,  994,  215,  477,   21
1802,  995,  996,  994,  483
1803, 1084, 1046, 1090, 1117
1804, 1006, 1044, 1102, 1088
1805, 1071,  983,  494,  492
1806, 1093,  446,  984,  476
1807, 1072,  458, 1035,  213
1808,  984, 1094,  476,  468
1809,  458, 1072, 1035,  984
1810, 1141, 1124,   95,  375
1811,  357, 1124, 1141, 1085
1812, 1141, 1080,   93,  355
1813, 1085, 1080, 1141,  355
1814, 1141,   93, 1080,  376
1815, 1103,  479,  998,  474
1816, 1058, 1073,  964, 1001
1817, 1053,  467, 1054,  460
1818,  998,  470,  474,  467
1819,  972, 1131, 1107,  967
1820, 1020,  485, 1125,  482
1821,  982, 1015,  979,  980
1822, 1135, 1116,  489, 1031
1823,  961, 1019,  967,  966
1824,  964, 1058, 1016, 1073
1825, 1110,  425, 1127, 1104
1826, 1119, 1118,  475, 1126
1827, 1109, 1126, 1119, 1098
1828, 1129,  100,  367,    9
1829, 1105, 1119, 1118, 1125
1830, 1105, 1107, 1108,  967
1831, 1105,  972, 1107,  967
1832, 1065, 1085, 1112, 1124
1833, 1086, 1082, 1084,  452
1834,  971, 1119,  485, 1057
1835, 1127, 1070, 1118, 1126
1836, 1106, 1110,  424, 1113
1837, 1128, 1110,  978,  429
1838, 1110, 1104,  429,  425
1839, 1061,  106,  107,  358
1840, 1021,  990, 1020, 1033
1841,  990, 1122, 1022,  985
1842, 1120, 1021, 1122, 1130
1843, 1033,  482, 1123,  478
1844, 1021,  972, 1131, 1107
1845,  972, 1131, 1019, 1022
1846, 1006, 1034, 1069, 1071
1847, 1088, 1034,  388, 1095
1848, 1095,  388, 1068, 1034
1849, 1006, 1095, 1034, 1088
1850, 1062,  359,  356,  357
1851, 1029, 1034,  369,  368
1852,  993, 1078,  996, 1094
1853,   20,  214, 1072, 1081
1854, 1002, 1102, 1043, 1024
1855, 1078,  996, 1094,  480
1856,  490,  480,  994, 1078
1857, 1081, 1078,  468,  484
1858,  992, 1114, 1046, 1083
1859,  984, 1078, 1094,  468
1860,  965,  408,  967, 1111
1861, 1107,  967,  414, 1108
1862, 1019,  967,  966,  398
1863,  967,  402, 1108, 1111
1864,  967, 1111,  408,  402
1865,  487,  475, 1125, 1118
1866,  970,  965,  967, 1111
1867,  973,  384,   97,   96
1868,  974,  399,  978,  391
1869,  973, 1124,  385,  359
1870,  359,  973, 1067,  361
1871,  973,   96,  385,  384
1872,  974, 1140, 1108,  419
1873,  973, 1124,  419,  385
1874, 1001, 1096,  996,  479
1875,  963,  966, 1023, 1101
1876,  996,  480, 1042, 1094
1877, 1137,  507,  117,  505
1878, 1036,  373,  374,  411
1879,  509, 1036,  426, 1038
1880,  374,  509,  118, 1039
1881, 1137,  373,  117,  118
1882, 1061,  430,  433,  107
1883,  391,  977,  390,  397
1884, 1113,  487, 1118,  469
1885,  974,  405,  978,  399
1886,  429,  421,  123,  397
1887,  123,  397, 1129,  429
1888, 1104, 1129,  978,  429
1889, 1129,  978,  397,  977
1890, 1031,  426, 1120, 1037
1891, 1117,    2,   22,   23
1892, 1029,   11,  111,  369
1893,  972, 1019, 1131,  967
1894, 1117,  109,  434,  435
1895, 1117,  435,    2,  110
1896, 1117,  435,  110,  109
1897, 1084, 1114,  453,  452
1898,  361,  359,  973,   96
1899,  216,  477, 1117, 1047
1900, 1045, 1077,  993, 1000
1901, 1016, 1058, 1134, 1073
1902, 1105, 1021,  972, 1125
1903,  989,  394, 1022,  392
1904,  980,  989, 1132,  981
1905,  450, 1050,  464,  451
1906,  962, 1022, 1019, 1074
1907, 1013, 1014, 1044, 1018
1908,  980, 1132,  989, 1074
1909,  105, 1100,  362, 1040
1910, 1018, 1074, 1101, 1132
1911, 1054,  969, 1083,  998
1912, 1065,  973, 1067, 1124
1913, 1117,  434, 1086,  453
1914,  976, 1126, 1040, 1100
1915, 1022,  394,  398,  392
1916, 1040, 1126,  431, 1100
1917, 1124,  359,  973, 1067
1918, 1060, 1056, 1064, 1082
1919, 1067, 1040, 1098, 1063
1920, 1060, 1082, 1064, 1066
1921, 1082, 1054,  452,  455
1922, 1082, 1056,  455,  456
1923, 1061,  455,  433,  430
1924,  989,  380,  981,  386
1925, 1013,  981, 1139,  501
1926, 1044, 1026, 1087, 1133
1927,  989, 1022,  962, 1074
1928,  982,  987,  979, 1049
1929, 1015,  986, 1017, 1018
1930,  472, 1042,  996,  480
1931,  975,  977,  365,  363
1932, 1093, 1042,  462, 1094
1933, 1042, 1011,  461, 1096
1934, 1042, 1011,  462,  461
1935, 1006, 1034, 1071, 1005
1936, 1006, 1042, 1093, 1094
1937,  993,  996, 1042, 1094
1938,  968, 1002, 1024, 1023
1939,  992, 1047,  995,  994
1940, 1114, 1054,  998,  467
1941,  453,  434, 1086,  452
1942, 1103,  470,  474,  998
1943, 1055, 1085, 1083, 1112
1944, 1046, 1091, 1076, 1115
1945, 1035,  492,  491,   29
1946, 1043, 1073, 1009, 1096
1947, 1006, 1044, 1088, 1034
1948, 1023, 1088, 1101,  406
1949, 1101,  406, 1088, 1025
1950, 1101, 1074,  400, 1132
1951,  370,  981, 1025,  380
1952,  988,  371, 1138,  372
1953, 1139,  115, 1138,  371
1954,  981, 1025,  380, 1132
1955, 1013,  501, 1139,  499
1956, 1026, 1139,  114,  499
1957, 1139,  370,  114,  115
1958,  508, 1031, 1116, 1135
1959,  486,  471, 1134, 1058
1960, 1111,  965,  408, 1059
1961,  360,  976,  363, 1067
1962, 1070,  448,  481,  445
1963,  366, 1127, 1070,  425
1964, 1127,  364, 1104,  366
1965, 1127, 1104,  425,  366
1966, 1080,  381,  376,  387
1967, 1126,  481, 1098,  431
1968, 1070, 1100,  445,  431
1969, 1126, 1098,  481,  475
1970, 1078, 1081,  468, 1072
1971, 1048,  218,  404,   27
1972, 1045,  992,  993,  994
1973, 1000, 1115,  420,  409
1974,  992, 1083, 1115,  999
1975,  992, 1046, 1114, 1047
1976, 1103,  485,  971,  486
1977, 1136,  136,  496,  137
1978, 1136, 1041,  498,  136
1979, 1005, 1136, 1011, 1041
1980, 1133, 1007, 1034, 1044
1981, 1025, 1088, 1101, 1018
1982, 1018, 1101, 1025, 1132
1983, 1075,  220,    3,   24
1984, 1093,  446, 1136,  437
1985, 1136, 1041,  438,  454
1986, 1093,  476,  984, 1094
1987,  472, 1042,  461, 1096
1988,  982,  989,  981,  988
1989, 1013, 1026, 1139,  981
1990, 1093, 1011, 1005, 1136
1991, 1048,   26,  420,  413
1992, 1101, 1025,  400,  406
1993, 1088, 1018, 1044, 1102
1994, 1087, 1088,  406, 1025
1995, 1030, 1029,  493, 1034
1996, 1099, 1119,  475, 1098
1997,  414,  407,  967, 1107
1998, 1065, 1108, 1140, 1111
1999, 1064, 1055, 1083, 1054
2000, 1098, 1040, 1126,  431
2001, 1070, 1126,  431,  481
2002, 1054,  452, 1114, 1084
2003,  997, 1002,  996, 1001
2004,  969,  970, 1055,  965
2005, 1083, 1091, 1115, 1059
2006, 1064, 1054, 1082, 1056
2007, 1069,  993, 1006, 1094
2008, 1005, 1133, 1007, 1034
2009,  138,  983,   14,  492
2010, 1042, 1094,  480,  462
2011, 1136,  983,  137,  496
2012,  458,  983,  984,  492
2013,  983,  137,  138,  437
2014, 1067,  976, 1126, 1040
2015,  978, 1128,  421, 1107
2016, 1104,  367, 1129,  100
2017, 1129,    9,  429,  100
2018,  365, 1129,  367,   99
2019, 1129,  429,    9,  123
2020, 1068,  417, 1000,  404
2021, 1078,  480, 1094,  484
2022, 1103,  971,  485, 1057
2023,  969,  998,  992, 1083
2024, 1053, 1103,  470, 1057
2025, 1103, 1001,  486, 1058
2026, 1006, 1007, 1008, 1044
2027, 1001,  471, 1073, 1096
2028, 1001, 1058,  471,  486
2029,  418, 1101,  412,  966
2030, 1117,  477,   22,  453
2031,  966, 1019,  398,  392
2032, 1118, 1126,  481,  475
2033,  404, 1028,  388,  396
2034,  966, 1019,  392, 1074
2035,  418, 1074, 1101,  966
2036, 1029,  111,  368,  369
2037,  963,  966, 1074, 1019
2038, 1095, 1088,  406,  388
2039, 1055,  965, 1111, 1059
2040, 1095,  999,  409, 1023
2041, 1083, 1084, 1054, 1114
2042, 1053,  969,  970, 1055
2043, 1059, 1111,  381,  402
2044,  408, 1059,  402, 1111
2045,  999,  393, 1115,  409
2046, 1083,  998, 1114, 1054
2047, 1047, 1114,  465,  453
2048, 1091, 1059,  381,  387
2049, 1016, 1020, 1134,  971
2050, 1103,  971, 1058,  486
2051, 1023,  406, 1095, 1088
2052, 1001, 1096,  479,  471
2053, 1071,  494,  496,  493
2054,  461, 1009, 1073, 1096
2055, 1038,  510,  507,  508
2056, 1051,  443, 1135,  132
2057, 1135,  131,  506,  132
2058, 1038,  508, 1031, 1116
2059,  130, 1135,  508, 1116
2060, 1135,  130,  508,  131
2061, 1062,  356,  354,  357
2062, 1009, 1073, 1012,  459
2063, 1018, 1088, 1101, 1023
2064, 1109, 1098, 1063, 1067
2065,  970,  971, 1058, 1057
2066, 1114,  467,  998,  465
2067, 1053, 1057,  470, 1056
2068, 1099, 1056,  463,  470
2069, 1099, 1119, 1057,  475
2070, 1040, 1100,  431,  105
2071, 1065, 1140, 1124, 1112
2072, 1040,  432,  105,  431
2073,  104,  103, 1100,  445
2074, 1070, 1100,  364,  103
2075, 1100,  364,  976, 1070
2076, 1100,  431,  105,  104
2077, 1022, 1019,  392,  398
2078,  969,  965, 1059,  999
2079, 1053, 1058, 1103, 1057
2080,  421, 1107,  405,  978
2081,  966, 1074,  392,  418
2082, 1037,  427, 1122,  411
2083, 1022, 1019, 1074,  392
2084, 1051,  504,  133,  132
2085, 1027,  396,   28,  389
2086,  416, 1107,  405,  421
2087, 1060, 1063, 1067, 1065
2088, 1075,  378,   25,  410
2089, 1126, 1119, 1118, 1110
2090, 1140, 1112, 1065, 1111
2091, 1059,  965,  408,  393
2092, 1063, 1056, 1099, 1057
2093, 1140, 1111,  402,  381
2094, 1001, 1058, 1073,  471
2095, 1048,  218,   27,   26
2096,  998,  997,  995,  479
2097,  999, 1059, 1115,  393
2098, 1093, 1136,  446, 1011
2099, 1078,  484,  490,  480
2100,  379, 1034,  368,  388
2101, 1093, 1071,  983, 1136
2102, 1004, 1049,  502,  134
2103, 1045, 1115,  992, 1046
2104,  988,  981,  503, 1138
2105, 1041,  500, 1010, 1007
2106,  989,  985,  394,  386
2107, 1049,  133,  502,  134
2108, 1045,  994, 1077,  215
2109, 1003, 1010, 1011, 1041
2110, 1093,  476, 1094,  462
2111, 1026,  497, 1007,  499
2112,  214, 1077,  218, 1078
2113, 1133,  495, 1007,  497
2114, 1136, 1041,  136,  438
2115, 1008, 1006, 1042, 1011
2116, 1043, 1009, 1011, 1096
2117, 1121,  478,  488,  125
2118,  989,  988,  985,  386
2119, 1138,  505,  117,  116
2120, 1137,  372, 1138,  117
2121,  981, 1138, 1139,  501
2122, 1138,  503,  116,  115
2123,  989, 1074,  380,  392
2124, 1110, 1104,  978,  429
2125, 1140,  419,  973, 1124
2126, 1085, 1112, 1141, 1080
2127, 1066, 1092, 1089, 1085
2128, 1053, 1056,  470,  460
2129, 1027,  388,  396,  369
2130, 1079, 1076, 1080,  377
2131, 1071,  492,  494,  491
2132, 1063, 1040, 1098, 1097
2133, 1097, 1099, 1063, 1056
2134, 1140,  419, 1124,  381
2135, 1140, 1112, 1111,  381
2136,  963, 1024, 1018, 1023
2137, 1060, 1067, 1040,  358
2138,  391,  975,  973,   97
2139,  989,  981,  380, 1132
2140, 1124,  381, 1141, 1112
2141, 1061, 1062,  358,  356
2142, 1060, 1061, 1097, 1082
2143, 1124,  375,  385,   95
2144, 1085, 1062, 1092,  355
2145,  995,  998,  483,  465
2146, 1066, 1086,  356, 1061
2147,  974,  399,  419,  415
2148, 1140,  381,  402,  419
2149, 1121,  422, 1116,  124
2150, 1116,  130,  124,   13
2151,  987,  508, 1051, 1032
2152, 1116,  422,  129,   13
2153, 1038,  510, 1116,  129
2154, 1038, 1116,  510,  508
2155, 1032,  457,  489,  443
2156, 1089, 1046, 1090, 1084
2157, 1076, 1091, 1080,  387
2158,   92, 1079,   93,  377
2159, 1086,  356,  107,  108
2160,  491,   11,  389,    4
2161, 1124,  357,   95,  359
2162, 1141,  381,  375,  376
2163, 1141,  376,   94,   93
2164, 1141,  355,   94,  357
2165,  989, 1074, 1132,  380
2166, 1071,  496,  495,  493
2167,  981, 1139,  371,  370
2168, 1122,  427,  401,  411
2169, 1074, 1132,  380,  400
2170,  475, 1125, 1118, 1119
2171, 1086,  452,  434,  433
2172, 1137,  988, 1138,  372
2173, 1008, 1011, 1010, 1041
2174,  400,  418, 1074, 1101
2175, 1013, 1139, 1026,  499
2176, 1035,   30,  213,  458
2177, 1101, 1025, 1132,  400
2178,  962, 1022,  972, 1019
2179, 1132, 1025,  380,  400
2180,  994,  483,  480,  490
2181, 1136,  454, 1011, 1041
2182, 1136,  498,  496,  136
2183, 1069, 1078, 1028, 1068
2184, 1003, 1041, 1011,  454
2185, 1136,  437,  446,  438
2186,  983,  137,  496,  494
2187, 1136,  446,  454,  438
2188,  984, 1072, 1035, 1030
2189, 1048,  420, 1000,  413
2190,  382,  379, 1026,  113
2191, 1071,  493,  491,  494
2192,  493, 1029, 1030,  491
2193,  493,  111, 1133, 1029
2194, 1034,  368,  388,  369
2195,  368, 1133,  112,  111
2196,  491,   29,    4,  389
2197,  353, 1092, 1089,  351
2198, 1045,  220,  215,  219
2199, 1089, 1083, 1085, 1091
2200, 1077, 1081, 1078,  214
2201, 1048,   25,  220,  219
2202, 1086, 1117, 1092,  352
2203, 1013,  979,  501, 1014
2204, 1027,  389,   11,  369
2205, 1076,  410,  387,  377
2206, 1048,  219,  218,   26
2207, 1077, 1081,  214,  215
2208, 1094,  468,  484,  476
2209, 1077,  219,  215,  214
2210, 1077,  214,  218,  219
2211, 1030, 1072, 1035, 1028
2212, 1028,  218,  213,  217
2213, 1090,  220,   24,  216
2214,  389,   28, 1027,   29
2215, 1048, 1068, 1000,  404
2216, 1028,   27,  218,  217
2217, 1072,  984,  468, 1078
2218, 1035,  217,   30,   29
2219, 1117,  216,   23,   22
2220,  218, 1078, 1028,  214
2221, 1081,   20,  490,  484
2222, 1072,  214,   19,  213
2223,   30,  213,  458,    1
2224, 1030, 1071,  491,  492
2225, 1007,  498,  497,  495
2226, 1035,  217,  213,   30
2227, 1027,  369, 1034,  388
2228,   30,   14,    1,  458
2229,  492,   14,   30,  458
2230, 1027,  369,  396,  389
2231, 1027, 1028, 1035,  217
2232,  216,  477,   21,   22
2233, 1001,  486,  471,  479
2234, 1059, 1111, 1112,  381
2235, 1020,  466,  473,  482
2236, 1106,  424,  428,  423
2237, 1081,   20,   21,  490
2238,  971,  486,  485,  473
2239, 1015, 1049,  979, 1004
2240, 1120,  422,  427,  426
2241, 1024, 1001, 1073, 1096
2242,  962,  989,  980,  985
2243, 1021, 1130, 1107, 1131
2244, 1099,  470,  463,  475
2245,  462,  472, 1042,  461
2246, 1004, 1041,  135,  500
2247, 1092,  352,  355,  354
2248, 1054,  467,  452,  455
2249, 1115,  409,  393,  403
2250, 1054,  455, 1056,  460
2251,  968,  964,  963, 1024
2252, 1020,  473,  485,  482
2253, 1052,  473,  466,  464
2254, 1056,  463,  460,  456
2255,  976,  364, 1127, 1070
2256, 1056,  456,  460,  455
2257,  981, 1139, 1138,  371
2258, 1050, 1052, 1032,  466
2259,  447, 1003, 1009,  454
2260, 1040, 1100,  362,  976
2261,  427,  423, 1130,  428
2262, 1125,  487,  482,  485
2263,  964, 1016,  963, 1024
2264, 1120,  423, 1130,  427
2265, 1044, 1013, 1132, 1025
2266, 1005, 1136,  498,  496
2267, 1031, 1033, 1121,  489
2268, 1121,  489,  478,  125
2269,  975, 1109, 1110,  978
2270,  996, 1096,  472,  479
2271,  414,  967,  402, 1108
2272, 1098,  463,  449,  475
2273, 1061,  456,  455,  430
2274, 1054,  460,  467,  455
2275, 1045, 1077, 1000, 1048
2276, 1114,  465,  452,  467
2277,  467, 1053,  998,  470
2278, 1085, 1091, 1083, 1112
2279, 1103,  486,  470,  485
2280, 1060, 1061, 1066, 1062
2281,  965,  966,  967,  408
2282, 1004,  441,  440,  451
2283,  388, 1087,  379, 1034
2284, 1093,  462,  446,  476
2285,  998,  474,  479,  483
2286,  994,  483,  490,  477
2287,  989,  386,  392,  380
2288,  965,  999,  393, 1059
2289, 1117,   22,  435,  453
2290, 1047,  465,  483,  477
2291,  216,  215,   21,  477
2292, 1075, 1079,   91,  378
2293, 1026,  497,  499,  113
2294, 1083,  969,  999,  992
2295, 1071, 1136,  496,  983
2296, 1048,  218, 1068,  404
2297, 1096,  472, 1042,  996
2298, 1094,  462,  476,  480
2299, 1090,  350, 1117,   23
2300, 1092,  352,  353,  355
2301, 1091,  381, 1080,  387
2302, 1089, 1085, 1080, 1091
2303, 1053,  460,  470,  467
2304, 1027, 1028,   28,  396
2305, 1069, 1094,  984, 1078
2306, 1002, 1095,  993, 1006
2307,  994,  490,   21,  477
2308,  984,  436,  468,  476
2309, 1044, 1034, 1087, 1088
2310, 1081,  484,  468,   20
2311, 1140,  402, 1108,  419
2312, 1103,  474,  470,  479
2313, 1059,  402,  381,  393
2314, 1098,  449,  481,  475
2315,  974, 1105, 1065, 1109
2316, 1119, 1126,  475, 1098
2317, 1040,  431, 1098,  449
2318, 1135,  132,  443,  131
2319, 1137,  118, 1039,  373
2320, 1014,  502,  499,  500
2321, 1116,   13,  129,  510
2322, 1050, 1049,  450,  442
2323, 1051, 1032, 1135,  443
2324, 1050,  466,  457,  450
2325, 1030,  491, 1071,  493
2326,  987,  508,  505,  506
2327, 1051,  443,  442,  457
2328, 1136,  983,  437,  137
2329, 1049,  504,  502,  133
2330, 1116,  130,  444,  124
2331, 1051,  132,  133,  442
2332, 1037,  991,  990,  987
2333,  981,  503, 1138,  501
2334, 1049,  134,  441,  133
2335,  508, 1031, 1032,  987
2336, 1004,  502, 1014,  500
2337, 1004,  135,  440,  134
2338, 1041,  136,  439,  135
2339,  496,  498, 1005,  495
2340, 1081,  994, 1078,  490
2341, 1133,  497,  112,  495
2342, 1011,  462,  454,  446
2343,  983,  494,  492,  138
2344, 1069, 1072, 1028, 1078
2345,   14,  983,  458,  492
2346,  983,  138,  137,  494
2347,  984,  437,  983,  436
2348,  984,  436,  476,  446
2349,  436,  138,  983,   14
2350, 1056,  463,  470,  460
2351, 1086,  433,  455,  452
2352, 1064, 1057, 1054, 1056
2353,  432, 1097, 1040,  430
2354,  968, 1002, 1001, 1024
2355, 1098,  481,  449,  431
2356, 1082, 1064, 1066, 1054
2357,  970, 1119, 1105,  971
2358, 1073,  471, 1134,  464
2359, 1103,  470,  486,  479
2360,  979,  502,  504,  501
2361, 1049,  441,  450,  442
2362, 1007,  498,  500,  497
2363, 1028,   27,   28,  396
2364, 1138,  501,  503,  115
2365, 1135, 1116,  130,  444
2366,  979,  503,  982,  981
2367, 1113,  488,  125,  423
2368, 1086, 1061,  107,  356
2369, 1061,  358,  107,  356
2370, 1096,  471,  461,  472
2371, 1051,  132,  506,  504
2372, 1073,  471,  464,  459
2373, 1011,  454,  462,  461
2374, 1009,  459,  447,  461
2375, 1093,  983,  984,  437
2376, 1012,  464,  451,  459
2377, 1003,  440,  447,  451
2378, 1138,  503,  505,  116
2379, 1033,  466,  478,  457
2380, 1003,  451,  447,  459
2381, 1050,  466,  450,  464
2382,  500, 1010, 1007, 1014
2383,  987,  505,  508,  507
2384, 1108,  419,  402,  415
2385, 1040, 1067, 1098, 1126
2386,  469,  127,  448,  425
2387, 1119, 1109, 1110, 1126
2388, 1123,  482,  488,  478
2389, 1116,  489,  124,  444
2390,  444, 1135, 1116,  489
2391, 1097, 1056,  456,  463
2392, 1120, 1106,  423, 1123
2393, 1113,  487,  469,  126
2394, 1097,  463,  456,  449
2395, 1118,  469,  481,  448
2396, 1004,  439,  440,  135
2397, 1040,  449,  432,  431
2398, 1118,  469,  448,  425
2399, 1120,  990, 1021, 1033
2400, 1113,  488,  487,  126
2401, 1070,  448,  445,  103
2402, 1070, 1126, 1100,  431
2403, 1109,  976, 1126, 1067
2404,  421,  978,  429, 1128
2405, 1070,  481,  431,  445
2406, 1070,  448, 1118,  481
2407,  987,  503,  506,  505
2408, 1109, 1127,  975, 1110
2409, 1055, 1059, 1111, 1112
2410, 1100,  445,  431,  104
2411, 1026, 1139,  370,  382
2412, 1136,  137,  438,  136
2413, 1050, 1049, 1004,  451
2414, 1004,  134,  440,  441
2415, 1026,  113,  114,  382
2416, 1033, 1123, 1121,  478
2417,  411,  426, 1037,  427
2418, 1025,  370,  380,  395
2419,  459, 1009, 1073,  461
2420, 1081,  215,   21,   20
2421, 1117,  435,  434,  453
2422, 1086,  433,  434,  108
2423, 1086,  354,  356,  108
2424, 1045,  215, 1047,  994
2425, 1117,  435,   22,    2
2426, 1086,  455, 1061, 1082
2427, 1089, 1080,  355,  353
2428, 1076,  413,  403,  410
2429, 1047,  477,  453,  465
2430, 1092,  355, 1062,  354
2431, 1048,   25,   26,  413
2432, 1075,   25,  413,  410
2433, 1072,  468,   19,   20
2434, 1027, 1028,  396,  388
2435, 1136, 1011,  454,  446
2436, 1042,  472,  462,  480
2437, 1050,  442,  450,  457
2438, 1041,  439,  438,  454
2439,  983,  437,  138,  436
2440, 1081,  994,   21,  215
2441, 1139,  371,  370,  115
2442, 1139,  501,  115,  114
2443, 1061,  358, 1040,  106
2444, 1115,  403,  420,  409
2445, 1068,  404, 1028,  388
2446, 1025,  400,  406,  395
2447, 1028,  218,  214,  213
2448, 1133,  495, 1005, 1007
2449, 1069, 1094, 1093,  984
2450, 1095,  417,  388,  406
2451,  970, 1063, 1105, 1119
2452, 1009, 1011, 1096,  461
2453,  989, 1022, 1074,  392
2454, 1134,  471,  486,  473
2455, 1047,  995,  483,  465
2456,  965,  412,  966,  408
2457,  984,  436,  446,  437
2458, 1005, 1136, 1041,  498
2459, 1072,  458,   19,  468
2460, 1072,  213, 1028,  214
2461, 1093, 1011,  446,  462
2462, 1048,   26,   27,  404
2463, 1045, 1076,  220,  413
2464, 1139,  499,  501,  114
2465, 1049,  442,  133,  441
2466, 1096,  479,  471,  472
2467,  213,    1,   19,  458
2468,  966,  408,  418,  398
2469,  397,  977,  390, 1129
2470,  425,  429, 1110,  424
2471, 1065,  974,  973, 1140
2472,  397,  421,  978,  429
2473, 1041,  500,  498,  135
2474, 1051,  506, 1135,  508
2475,  121,  426,  411,  427
2476,  411,  427,  401,  121
2477, 1080,  376,  377,  387
2478,  128,  426,  374,  120
2479, 1139,  981, 1026,  370
2480, 1123,  488, 1121,  478
2481, 1086,  109,  352,  354
2482,  991,  988,  372,  383
2483, 1038,  426,  129,  422
2484,  448,  366,  425,  101
2485,  448,  127,  101,  425
2486,  978,  397,  399,  405
2487, 1128,  428,  424,  429
2488, 1119, 1125,  485,  475
2489,  987,  991,  988,  505
2490, 1099,  463, 1098,  475
2491, 1113,  423,  125,  424
2492,  376,  381, 1080, 1141
2493,  488,  487, 1123, 1113
2494, 1118,  469,  475,  481
2495,  448,  101,  102,  366
2496, 1107,  407,  405,  414
2497, 1018, 1044, 1132, 1025
2498, 1051,  132,  442,  443
2499, 1121,  423,  124,  125
2500, 1121,  125,  488,  423
2501, 1122,  416,  407,  401
2502, 1007,  500,  499,  497
2503, 1130,  122,  416,  121
2504, 1131, 1019, 1022,  398
2505, 1113,  126,  125,  488
2506, 1125,  487,  485,  475
2507, 1100,  364,  104,  362
2508, 1116,   13,  510,  130
2509, 1120,  427,  422,  423
2510, 1041,  438,  439,  136
2511, 1119, 1057,  475,  485
2512, 1116,  422,   13,  124
2513, 1071,  494,  983,  496
2514,  965,  409,  408,  393
2515, 1141,  355,   93,   94
2516, 1048,  420,   26,  404
2517, 1045,  993, 1077,  994
2518,  998,  474,  483,  465
2519, 1081, 1078,  484,  490
2520, 1040,  360,  106,  358
2521,  996,  480,  483,  479
2522,  966,  418,  408,  412
2523, 1095,  409,  417,  412
2524, 1057,  485,  470,  475
2525,  426,  509,  128,  374
2526, 1097,  456,  430,  432
2527, 1124, 1062,  357,  359
2528,  998,  467,  474,  465
2529,  967,  414,  402,  408
2530, 1101,  412,  400,  418
2531, 1047, 1114,  995,  465
2532, 1130,  122,  421,  416
2533,  428, 1130,  122,  421
2534,  978,  421,  397,  405
2535, 1131,  967,  398,  407
2536, 1108,  414,  415,  402
2537, 1115,  393,  387,  403
2538,  458, 1072,  984,  468
2539, 1095,  417,  406,  412
2540,  966,  418,  392,  398
2541, 1115,  413,  420,  403
2542,  978,  399,  397,  391
2543, 1139, 1138,  115,  501
2544, 1129,  123,  390,  397
2545, 1130,  121,  416,  401
2546,  362, 1040,  360,  105
2547,  965,  408,  409,  412
2548,  967,  414,  408,  398
2549, 1090, 1092,  350,  351
2550, 1085, 1091, 1112, 1080
2551, 1047,  477, 1117,  453
2552, 1081,  214,  215,   20
2553, 1000,  404,  417,  420
2554, 1131,  407, 1122,  416
2555, 1114,  452,  465,  453
2556,  977,   97,   98,  363
2557, 1075,    3,  378,   91
2558, 1047,  994,  477,  483
2559,  393, 1059,  402,  408
2560, 1062,  357,  354,  355
2561, 1067,  359,  361,  358
2562, 1067,  358,  361,  360
2563, 1033,  457,  478,  489
2564, 1089,  351, 1079,  353
2565,  981,  371,  386,  380
2566, 1074,  400,  380,  392
2567,  448,  101,  127,   10
2568, 1121,  422,  124,  423
2569, 1074,  400,  392,  418
2570,  977,   99,  365,   98
2571,  400,  412, 1101,  406
2572, 1090,   23,  351,  350
2573, 1018, 1010, 1044, 1043
2574, 1133,  112,  379,  368
2575, 1086, 1082,  452,  455
2576,  985,  401,  383,  411
2577, 1023,  999,  409,  965
2578, 1107,  416,  405,  407
2579,  122,  428,  421,  123
2580, 1081,  214, 1072, 1078
2581, 1117,  350,  352,  110
2582, 1040,  358, 1067,  360
2583, 1123,  482,  487,  488
2584, 1139,  114,  370,  382
2585,  428,  421,  123,  429
2586,  495,  493,  111, 1133
2587,  981,  380,  370,  371
2588, 1075,   25,  378,    3
2589, 1093,  437, 1136,  983
2590,  967,  966,  398,  408
2591, 1076,  403,  387,  410
2592, 1000,  409,  420,  417
2593, 1025,  400,  395,  380
2594, 1003,  440,  439,  447
2595, 1100,  104,  105,  362
2596, 1133,  379,  112,  113
2597, 1047,  477,  215,  216
2598, 1046, 1114, 1047, 1117
2599, 1076,  410, 1079, 1075
2600, 1097,  456,  432,  449
2601, 1141,  376,  375,   94
2602, 1117,  350,    2,   23
2603, 1124,  385,  375,  419
2604, 1141, 1124,  357,   95
2605, 1136,  438,  137,  437
2606,  973,  384,  385,  419
2607, 1079,  351,   92,  353
2608,  973,   97,  363,  361
2609,  359,  973,   96,  385
2610, 1117,  110,    2,  350
2611,  963, 1101, 1074,  966
2612, 1129,  367,   99,    9
2613, 1129,   99,  123,    9
2614,  974,  384,  419,  399
2615, 1104, 1129,  367,  365
2616,  974,  399,  415,  405
2617,  974,  391,  384,  399
2618,  965,  393,  999,  409
2619, 1129,   99,  390,  123
2620,  353, 1080,  355,   93
2621, 1003, 1012, 1004,  451
2622, 1124,  375,  381,  419
2623,  385,   95,   96,  359
2624,  467, 1054,  452, 1114
2625, 1128, 1106, 1130, 1107
2626,  976,  360, 1040, 1067
2627,  974,  973,  419,  384
2628,  967,  407,  414,  398
2629, 1003,  439,  454,  447
2630,  120,  411,  426,  374
2631, 1075, 1079,  351,   91
2632, 1062,  356,  359,  358
2633,  426,  411,  120,  121
2634, 1075,   91,   24,    3
2635, 1004,  502,  500,  134
2636, 1004,  135, 1041,  439
2637, 1138,  115,  116,  371
2638,  120,  119,  128,   12
2639, 1079,  351,   91,   92
2640, 1122,  407,  394,  401
2641, 1031, 1038, 1116,  422
2642, 1137,  507,  118,  117
2643,  119,  374,  509,  118
2644, 1050, 1052, 1015, 1032
2645, 1036, 1037,  411,  426
2646, 1036,  411,  383,  373
2647, 1091, 1059, 1083, 1112
2648, 1094,  480,  476,  484
2649,  979,  504,  503,  501
2650, 1084, 1082, 1054,  452
2651, 1117,  352,  109,  110
2652,  381, 1080, 1141, 1112
2653, 1086,  354,  108,  109
2654, 1039,  118,  374,  373
2655, 1050,  457, 1051,  442
2656, 1135,  131,  443,  444
2657,  988,  505, 1138,  503
2658, 1080,  377,  376,   93
2659, 1138,  372,  371,  116
2660,  374,  120,  119,  128
2661,  987,  506,  503,  504
2662, 1141,  375,   95,   94
2663,  970, 1105,  972,  971
2664, 1137,  117,  373,  372
2665, 1092,  353,  352,  350
2666,  988,  372,  386,  371
2667, 1138,  116,  117,  372
2668, 1076, 1080,  377,  387
2669,  987,  505,  988,  503
2670,  988,  383,  386,  372
2671, 1068,  404,  388,  417
2672, 1079,  353,   92,   93
2673, 1033,  466,  482,  478
2674, 1024, 1073, 1017, 1043
2675, 1086, 1092,  354,  352
2676, 1041,  135,  498,  136
2677, 1008, 1006, 1102, 1042
2678, 1079,  410,  377,  378
2679, 1142, 1143, 1144, 1145
2680, 1146, 1147, 1148, 1149
2681, 1147, 1142, 1146, 1150
2682, 1149, 1142, 1146, 1147
2683, 1151, 1144, 1150, 1152
2684, 1144, 1150, 1152, 1142
2685, 1153, 1150, 1144, 1142
2686, 1154, 1153, 1150, 1144
2687, 1142, 1155, 1146, 1152
2688, 1156, 1157, 1158, 1159
2689, 1156, 1160, 1161, 1162
2690, 1156, 1160, 1163, 1164
2691, 1156, 1164, 1158, 1165
2692, 1156, 1166, 1157, 1159
2693, 1162, 1160, 1167, 1156
2694, 1168, 1169, 1170, 1171
2695, 1168, 1169, 1172, 1170
2696, 1172, 1168, 1173, 1169
2697, 1168, 1169, 1174, 1173
2698,  533, 1175,  535, 1176
2699, 1177, 1178, 1174, 1179
2700, 1178, 1174, 1179, 1168
2701, 1142, 1145, 1180, 1149
2702, 1142, 1153, 1145, 1144
2703, 1153, 1145, 1144, 1181
2704, 1153, 1182, 1154, 1183
2705, 1184, 1178, 1170, 1153
2706, 1153, 1183, 1154, 1150
2707, 1143, 1185, 1186, 1162
2708, 1185, 1162, 1143, 1145
2709, 1185, 1187, 1162, 1145
2710, 1187, 1166, 1188, 1185
2711, 1185, 1189, 1190, 1191
2712, 1185, 1192, 1193, 1190
2713, 1185, 1194, 1193, 1192
2714, 1195, 1196, 1197, 1198
2715, 1199,  140,  141,  514
2716, 1200, 1195, 1196, 1197
2717, 1198, 1196, 1197, 1201
2718, 1202, 1195, 1203, 1198
2719, 1204, 1202, 1195, 1203
2720, 1171, 1195, 1202, 1205
2721, 1206, 1207, 1208, 1209
2722, 1203, 1198, 1210, 1202
2723, 1156, 1211, 1165, 1157
2724, 1160, 1186, 1162, 1167
2725, 1156, 1162, 1161, 1166
2726, 1172, 1162, 1159, 1187
2727, 1187, 1145, 1172, 1162
2728, 1186, 1167, 1143, 1162
2729, 1212,  554,  553,  595
2730, 1213, 1143, 1185, 1186
2731,  515, 1214,  513,  177
2732, 1185, 1194, 1213, 1193
2733, 1185, 1162, 1187, 1166
2734, 1185, 1162, 1161, 1186
2735, 1213, 1194, 1155, 1175
2736, 1161, 1186, 1191, 1185
2737, 1213, 1215, 1186, 1191
2738, 1213, 1193, 1216, 1191
2739, 1217, 1167, 1218, 1163
2740, 1162, 1217, 1143, 1145
2741, 1217, 1162, 1159, 1172
2742, 1217, 1170, 1145, 1172
2743, 1143, 1181, 1144, 1145
2744, 1217, 1181, 1145, 1170
2745, 1160, 1186, 1167, 1219
2746, 1167, 1219, 1220, 1221
2747, 1167, 1219, 1222, 1223
2748, 1167, 1222, 1219, 1221
2749, 1160, 1219, 1224, 1186
2750, 1160, 1219, 1225, 1224
2751, 1160, 1225, 1219, 1223
2752, 1218, 1143, 1167, 1217
2753,  304, 1226,  306, 1227
2754, 1156, 1160, 1225, 1228
2755, 1229, 1230,  537,  535
2756, 1158, 1231, 1157, 1232
2757, 1158, 1231, 1233, 1234
2758, 1235, 1236,  514, 1199
2759, 1158, 1169, 1164, 1159
2760, 1158, 1237, 1234, 1233
2761, 1156, 1165, 1158, 1157
2762, 1165, 1233, 1238, 1158
2763, 1239, 1165, 1233, 1238
2764, 1163, 1156, 1217, 1167
2765, 1186, 1191, 1185, 1213
2766, 1186, 1240, 1241, 1213
2767, 1213, 1143, 1240, 1155
2768, 1142, 1144, 1143, 1155
2769, 1213, 1155, 1240, 1242
2770, 1188, 1211, 1243, 1244
2771, 1188, 1245, 1244, 1246
2772, 1188, 1245, 1246, 1189
2773, 1247, 1248,  328,  517
2774, 1211, 1166, 1188, 1187
2775, 1188, 1189, 1166, 1249
2776, 1211, 1231, 1157, 1250
2777, 1211, 1232, 1231, 1250
2778, 1211, 1251, 1245, 1252
2779, 1188, 1211, 1244, 1245
2780, 1244, 1211, 1251, 1245
2781, 1253,  891, 1254,  712
2782, 1206, 1243, 1188, 1187
2783, 1188, 1166, 1211, 1249
2784,   78, 1235,   77,  327
2785,  148, 1255,  147,  528
2786, 1219, 1221, 1256, 1257
2787, 1167, 1221, 1220, 1218
2788, 1258,  892,  891,  889
2789, 1221, 1220, 1259, 1257
2790, 1260, 1221, 1261, 1219
2791, 1221, 1222, 1262, 1263
2792, 1221, 1257, 1264, 1256
2793, 1160, 1228, 1161, 1265
2794, 1228, 1266, 1265, 1225
2795, 1228, 1225, 1267, 1266
2796, 1156, 1162, 1166, 1159
2797, 1228, 1267, 1225, 1268
2798, 1156, 1225, 1164, 1268
2799, 1228, 1269, 1161, 1270
2800, 1156, 1269, 1228, 1271
2801, 1156, 1160, 1164, 1225
2802, 1185, 1161, 1162, 1166
2803, 1188, 1211, 1245, 1249
2804, 1156, 1166, 1161, 1269
2805, 1161, 1166, 1185, 1269
2806, 1166, 1189, 1269, 1249
2807, 1189, 1269, 1191, 1185
2808, 1185, 1187, 1272, 1206
2809, 1240, 1167, 1220, 1218
2810, 1217, 1172, 1163, 1170
2811, 1184, 1145, 1149, 1180
2812,  168, 1273, 1274,  533
2813, 1167, 1143, 1162, 1217
2814, 1153, 1170, 1145, 1181
2815, 1185, 1193, 1213, 1191
2816,  148, 1275,  149,  565
2817, 1165, 1211, 1232, 1157
2818, 1186, 1215, 1265, 1191
2819, 1156, 1164, 1163, 1159
2820, 1185, 1269, 1191, 1161
2821, 1186, 1265, 1276, 1224
2822, 1156, 1165, 1228, 1268
2823, 1160, 1167, 1163, 1223
2824, 1167, 1163, 1223, 1222
2825, 1167, 1163, 1222, 1218
2826, 1156, 1268, 1228, 1225
2827, 1145, 1184, 1170, 1153
2828, 1142, 1272, 1277, 1194
2829, 1155, 1278, 1144, 1240
2830, 1142, 1155, 1152, 1144
2831, 1175, 1230, 1146, 1155
2832, 1163, 1169, 1172, 1159
2833, 1163, 1170, 1169, 1171
2834, 1163, 1169, 1279, 1171
2835, 1181, 1217, 1143, 1218
2836, 1160, 1265, 1161, 1186
2837, 1218, 1143, 1240, 1167
2838, 1163, 1169, 1164, 1279
2839, 1265, 1225, 1266, 1280
2840, 1265, 1281, 1282, 1283
2841, 1265, 1266, 1283, 1280
2842, 1160, 1225, 1265, 1224
2843, 1186, 1276, 1265, 1215
2844, 1186, 1220, 1257, 1241
2845, 1160, 1186, 1224, 1265
2846, 1159, 1162, 1217, 1156
2847, 1284, 1285, 1286, 1287
2848, 1193, 1194, 1176, 1192
2849,  512,   23, 1288,  335
2850, 1185, 1192, 1272, 1194
2851, 1193, 1191, 1289, 1216
2852, 1193, 1191, 1190, 1290
2853, 1193, 1289, 1191, 1290
2854, 1213, 1191, 1216, 1215
2855, 1185, 1193, 1191, 1190
2856, 1193, 1216, 1176, 1194
2857, 1269, 1290, 1189, 1191
2858, 1269, 1166, 1185, 1189
2859, 1265, 1191, 1281, 1270
2860, 1213, 1216, 1193, 1194
2861, 1191, 1270, 1290, 1281
2862, 1291, 1292, 1293, 1294
2863, 1294, 1295, 1293, 1282
2864, 1292, 1296, 1295, 1294
2865,   79, 1297,   80,  557
2866, 1225, 1298, 1223, 1268
2867, 1225, 1223, 1298, 1227
2868, 1249, 1165, 1211, 1232
2869, 1160, 1164, 1225, 1223
2870, 1228, 1270, 1271, 1269
2871, 1228, 1165, 1271, 1299
2872, 1156, 1271, 1228, 1165
2873, 1168, 1171, 1195, 1204
2874, 1168, 1170, 1179, 1178
2875, 1163, 1171, 1279, 1223
2876, 1217, 1170, 1163, 1181
2877, 1179, 1172, 1168, 1173
2878, 1169, 1279, 1174, 1300
2879, 1156, 1271, 1249, 1269
2880, 1169, 1159, 1173, 1172
2881, 1157, 1173, 1301, 1302
2882, 1159, 1187, 1301, 1172
2883, 1142, 1194, 1143, 1145
2884, 1166, 1159, 1187, 1157
2885, 1303, 1304, 1305, 1202
2886, 1303,  863, 1306, 1307
2887, 1303, 1260, 1262, 1308
2888, 1303, 1309, 1308, 1306
2889, 1310, 1287, 1286, 1311
2890, 1310, 1286, 1287, 1312
2891, 1310, 1312, 1311,  644
2892, 1310, 1311,  623,  644
2893,  678, 1310,  660,  677
2894, 1310, 1286, 1313, 1314
2895, 1198, 1205, 1263, 1202
2896, 1198, 1263, 1315, 1202
2897, 1181, 1205, 1163, 1218
2898, 1163, 1222, 1205, 1171
2899, 1316,  200,  201,  717
2900,  859,  835, 1317,  840
2901, 1198, 1196, 1315, 1263
2902, 1198, 1196, 1201, 1315
2903, 1318, 1291, 1319, 1320
2904, 1318, 1291, 1320, 1321
2905, 1318, 1321, 1322, 1323
2906, 1309,  830,  825,  854
2907, 1318, 1291, 1324, 1319
2908, 1323, 1325, 1326, 1294
2909, 1294, 1318, 1292, 1326
2910, 1318, 1322, 1326, 1323
2911, 1294, 1327, 1291, 1323
2912, 1294, 1318, 1326, 1323
2913, 1154, 1200, 1328, 1197
2914, 1153, 1182, 1170, 1200
2915, 1154, 1200, 1197, 1182
2916, 1153, 1200, 1154, 1182
2917, 1154, 1151, 1181, 1144
2918, 1143, 1218, 1240, 1144
2919, 1299, 1267, 1329, 1330
2920, 1163, 1205, 1222, 1218
2921, 1167, 1143, 1240, 1186
2922, 1331, 1332, 1333, 1274
2923, 1259, 1218, 1240, 1220
2924, 1221, 1259, 1218, 1263
2925, 1156, 1160, 1167, 1163
2926, 1205, 1222, 1263, 1202
2927, 1216, 1334, 1335, 1215
2928, 1215, 1335, 1216, 1175
2929, 1241, 1336, 1321, 1337
2930, 1215, 1216, 1334, 1338
2931, 1191, 1215, 1281, 1216
2932, 1265, 1191, 1215, 1281
2933, 1265, 1282, 1215, 1276
2934, 1215, 1241, 1175, 1216
2935, 1215, 1327, 1276, 1282
2936, 1217, 1156, 1163, 1159
2937,  880,  302,  303, 1339
2938, 1213, 1215, 1216, 1241
2939, 1215, 1241, 1276, 1291
2940, 1340, 1278, 1341, 1259
2941, 1342, 1343, 1197, 1344
2942, 1345, 1346, 1336, 1340
2943, 1340, 1242, 1336, 1341
2944, 1340, 1341, 1345, 1347
2945, 1191, 1270, 1269, 1290
2946, 1228, 1271, 1270, 1299
2947, 1270, 1348, 1349, 1350
2948, 1270, 1351, 1348, 1350
2949, 1352, 1348, 1266, 1281
2950, 1302,  712, 1258,  711
2951, 1348, 1266, 1281, 1270
2952, 1161, 1191, 1270, 1269
2953, 1171, 1204, 1174, 1353
2954, 1171, 1204, 1354, 1304
2955, 1217, 1159, 1163, 1172
2956, 1171, 1304, 1223, 1222
2957, 1163, 1222, 1171, 1223
2958, 1205, 1171, 1222, 1202
2959, 1205, 1181, 1171, 1195
2960, 1147, 1355, 1356, 1150
2961, 1147, 1180, 1357, 1149
2962, 1147, 1357, 1180, 1356
2963, 1142, 1147, 1180, 1150
2964, 1147, 1358, 1359, 1360
2965, 1303, 1222, 1262, 1260
2966, 1304, 1204, 1354, 1305
2967, 1361,   44,  759,  753
2968, 1168, 1169, 1171, 1174
2969, 1204, 1202, 1304, 1171
2970, 1304, 1222, 1260, 1223
2971, 1171, 1223, 1304, 1279
2972, 1304, 1260, 1362, 1226
2973, 1271, 1269, 1349, 1249
2974, 1167, 1219, 1186, 1220
2975, 1265, 1225, 1280, 1224
2976, 1178, 1204, 1195, 1363
2977, 1156, 1166, 1269, 1249
2978, 1271, 1249, 1232, 1165
2979, 1271, 1249, 1364, 1232
2980, 1172, 1301, 1365, 1187
2981, 1187, 1272, 1366, 1149
2982, 1187, 1367, 1368, 1366
2983, 1159, 1301, 1187, 1157
2984, 1211, 1157, 1187, 1243
2985, 1187, 1367, 1206, 1243
2986, 1171, 1354, 1204, 1353
2987, 1221, 1218, 1222, 1263
2988, 1218, 1181, 1205, 1196
2989, 1218, 1144, 1181, 1369
2990, 1153, 1154, 1181, 1144
2991, 1153, 1181, 1200, 1170
2992, 1181, 1170, 1195, 1200
2993, 1154, 1200, 1181, 1151
2994, 1370, 1350, 1371, 1348
2995, 1348, 1351, 1281, 1372
2996, 1348, 1352, 1373, 1374
2997, 1348, 1351, 1372, 1370
2998, 1348, 1374, 1372, 1352
2999, 1160, 1161, 1162, 1186
3000, 1142, 1155, 1194, 1146
3001, 1185, 1187, 1206, 1188
3002, 1219, 1227, 1260, 1223
3003, 1303, 1262, 1222, 1202
3004, 1219, 1221, 1261, 1256
3005, 1221, 1218, 1259, 1220
3006, 1163, 1223, 1279, 1164
3007, 1223, 1164, 1268, 1298
3008, 1219, 1222, 1223, 1260
3009, 1223, 1227, 1260, 1226
3010, 1304, 1223, 1226, 1354
3011, 1223, 1354, 1298, 1226
3012, 1223, 1164, 1298, 1279
3013, 1225, 1267, 1280, 1375
3014, 1317,  862,  859,  840
3015, 1268, 1298, 1286, 1375
3016, 1228, 1299, 1268, 1165
3017, 1205, 1218, 1263, 1222
3018, 1153, 1145, 1184, 1180
3019, 1143, 1240, 1155, 1144
3020, 1319,  787,  818,  788
3021, 1160, 1228, 1265, 1225
3022,  306, 1376,  309, 1227
3023, 1344,  872,  859,  871
3024, 1172, 1365, 1301, 1173
3025, 1156, 1160, 1228, 1161
3026, 1235,  331,  333,  516
3027, 1249, 1166, 1211, 1156
3028, 1156, 1228, 1269, 1161
3029, 1164, 1237, 1300, 1169
3030, 1207, 1206, 1243, 1209
3031, 1367, 1366, 1272, 1206
3032,  882,  881,  884, 1298
3033, 1209, 1206, 1377, 1208
3034, 1378, 1207, 1366, 1367
3035, 1207, 1379, 1366, 1380
3036, 1381,  316,  318,   40
3037, 1382, 1383, 1190, 1246
3038, 1382, 1383, 1384, 1385
3039, 1386, 1384, 1387, 1383
3040, 1383, 1388, 1384, 1389
3041, 1383, 1290, 1190, 1246
3042, 1383, 1389, 1384, 1385
3043, 1290, 1383, 1390, 1351
3044, 1390, 1290, 1391, 1289
3045, 1392, 1393,  587,   74
3046, 1142, 1145, 1153, 1180
3047, 1242, 1241, 1341, 1240
3048, 1213, 1175, 1242, 1241
3049, 1242, 1241, 1336, 1341
3050, 1340, 1346, 1242, 1152
3051, 1242, 1336, 1230, 1346
3052, 1230, 1242, 1155, 1175
3053, 1281, 1394, 1372, 1391
3054, 1281, 1266, 1352, 1395
3055, 1281, 1266, 1395, 1283
3056, 1281, 1394, 1391, 1338
3057,  195,  891,  712,  196
3058, 1245, 1371, 1396, 1246
3059, 1243, 1244, 1211, 1251
3060, 1245, 1397, 1398, 1399
3061, 1397, 1371, 1396, 1245
3062, 1188, 1189, 1190, 1185
3063, 1206, 1382, 1190, 1244
3064, 1188, 1244, 1206, 1190
3065, 1220, 1341, 1241, 1240
3066, 1219, 1227, 1225, 1224
3067, 1221, 1222, 1260, 1262
3068, 1369, 1259, 1218, 1240
3069, 1220, 1341, 1240, 1259
3070, 1221, 1264, 1257, 1259
3071, 1167, 1221, 1218, 1222
3072, 1228, 1270, 1266, 1299
3073, 1155, 1152, 1144, 1278
3074, 1185, 1213, 1194, 1143
3075, 1161, 1265, 1270, 1191
3076, 1400, 1353, 1354,  886
3077, 1155, 1278, 1242, 1152
3078, 1172, 1145, 1184, 1170
3079, 1401,  748,  206,  724
3080, 1153, 1180, 1184, 1183
3081, 1213, 1143, 1186, 1240
3082, 1402,  721, 1174, 1403
3083, 1213, 1241, 1186, 1215
3084, 1213, 1175, 1216, 1194
3085, 1215, 1175, 1241, 1337
3086, 1213, 1241, 1216, 1175
3087, 1242, 1278, 1240, 1341
3088, 1185, 1190, 1188, 1206
3089, 1216, 1404, 1289, 1176
3090, 1215, 1282, 1281, 1338
3091, 1405,  846,  865,  847
3092, 1281, 1290, 1289, 1391
3093, 1193, 1176, 1216, 1289
3094, 1406, 1207, 1206, 1366
3095, 1208, 1207, 1380, 1407
3096, 1209, 1243, 1408, 1244
3097, 1209, 1409, 1410, 1208
3098, 1366, 1207, 1206, 1367
3099, 1266, 1280, 1267, 1411
3100, 1266, 1299, 1330, 1267
3101, 1411, 1266, 1352, 1267
3102, 1330, 1267, 1329, 1412
3103, 1267, 1266, 1352, 1330
3104, 1270, 1348, 1266, 1330
3105, 1149, 1413, 1414,  545
3106, 1406, 1413,  545,  546
3107, 1406, 1277, 1272, 1192
3108, 1406, 1277,  542,  541
3109, 1406, 1149, 1277,  541
3110, 1178, 1183, 1153, 1184
3111, 1178, 1183, 1415, 1182
3112, 1415, 1316, 1416, 1417
3113, 1178, 1204, 1418, 1174
3114, 1170, 1178, 1184, 1179
3115, 1168, 1171, 1170, 1195
3116, 1299, 1165, 1419, 1239
3117, 1299, 1330, 1329, 1420
3118, 1268, 1165, 1299, 1239
3119, 1271, 1349, 1299, 1364
3120, 1284, 1314, 1286, 1285
3121,  880,  303,   90,  879
3122, 1270, 1330, 1299, 1349
3123, 1156, 1249, 1271, 1165
3124, 1270, 1349, 1271, 1269
3125, 1228, 1270, 1265, 1266
3126, 1228, 1268, 1299, 1267
3127, 1267, 1421, 1412, 1411
3128, 1412, 1267, 1329, 1421
3129, 1352, 1267, 1412, 1411
3130, 1265, 1270, 1281, 1266
3131, 1267, 1329, 1422, 1375
3132, 1268, 1267, 1329, 1299
3133, 1375, 1267, 1329, 1268
3134, 1267, 1423, 1411, 1280
3135, 1158, 1233, 1231, 1232
3136, 1158, 1231, 1234, 1157
3137, 1231, 1234, 1424, 1233
3138, 1425, 1233, 1232, 1231
3139, 1307,  853,  863,  874
3140, 1252, 1250, 1425, 1232
3141, 1250, 1425, 1232, 1231
3142, 1231, 1233, 1424, 1425
3143,  542, 1207, 1206, 1406
3144, 1145, 1272, 1149, 1142
3145, 1406, 1272, 1277, 1149
3146, 1194, 1142, 1146, 1277
3147, 1187, 1272, 1367, 1366
3148, 1206, 1209, 1377, 1382
3149, 1218, 1181, 1144, 1143
3150, 1181, 1144, 1151, 1369
3151, 1187, 1206, 1367, 1272
3152, 1142, 1155, 1143, 1194
3153, 1213, 1242, 1240, 1241
3154, 1193, 1290, 1190, 1289
3155, 1216, 1176, 1194, 1175
3156, 1142, 1194, 1145, 1272
3157, 1228, 1161, 1265, 1270
3158, 1299, 1426, 1329, 1419
3159, 1189, 1166, 1185, 1188
3160, 1271, 1364, 1249, 1349
3161, 1290, 1270, 1269, 1350
3162, 1188, 1189, 1246, 1190
3163, 1288,  335,  333,  514
3164, 1427, 1428,   42,  751
3165, 1159, 1173, 1301, 1157
3166, 1249, 1156, 1211, 1165
3167, 1161, 1186, 1265, 1191
3168, 1249, 1245, 1398, 1211
3169, 1327, 1429, 1430, 1296
3170, 1334, 1327, 1215, 1338
3171, 1327, 1431, 1338, 1334
3172, 1327, 1338, 1431, 1296
3173, 1227,  306,  304,  307
3174, 1323, 1327, 1430, 1325
3175, 1432,  694,  700,  693
3176, 1203,  869,  850,  827
3177, 1433,  201,  744,  202
3178, 1215, 1327, 1282, 1338
3179, 1291, 1337, 1323, 1327
3180, 1321, 1291, 1337, 1323
3181, 1298, 1225, 1375, 1268
3182, 1224, 1276, 1293, 1282
3183, 1225, 1268, 1223, 1164
3184, 1219, 1256, 1434, 1224
3185, 1213, 1155, 1242, 1175
3186, 1281, 1290, 1391, 1351
3187, 1404, 1216, 1334, 1335
3188, 1435,  202,  771,  203
3189, 1195, 1181, 1196, 1205
3190, 1144, 1278, 1151, 1369
3191, 1265, 1224, 1282, 1276
3192, 1220, 1186, 1240, 1241
3193, 1215, 1327, 1335, 1337
3194, 1215, 1327, 1291, 1276
3195, 1145, 1217, 1143, 1181
3196, 1293, 1276, 1224, 1256
3197, 1155, 1240, 1242, 1278
3198, 1234, 1436, 1437, 1438
3199, 1234, 1439, 1440, 1441
3200, 1231, 1424, 1234, 1437
3201, 1218, 1196, 1263, 1369
3202, 1256, 1276, 1224, 1219
3203, 1299, 1364, 1349, 1330
3204, 1299, 1420, 1329, 1426
3205, 1268, 1165, 1238, 1164
3206, 1158, 1173, 1169, 1159
3207, 1363,  855,  836,  850
3208, 1211, 1166, 1187, 1157
3209, 1266, 1411, 1442, 1283
3210, 1299, 1329, 1239, 1419
3211,  536, 1385, 1192,  538
3212, 1434, 1219, 1227, 1260
3213, 1268, 1298, 1164, 1238
3214, 1257, 1291, 1341, 1443
3215, 1158, 1238, 1164, 1237
3216, 1217, 1181, 1163, 1218
3217, 1271, 1299, 1165, 1364
3218, 1299, 1268, 1239, 1329
3219, 1164, 1279, 1300, 1444
3220, 1164, 1444, 1298, 1279
3221, 1188, 1245, 1189, 1249
3222, 1245, 1249, 1398, 1189
3223, 1153, 1178, 1170, 1182
3224, 1173, 1158, 1157, 1159
3225, 1158, 1165, 1164, 1238
3226, 1165, 1233, 1232, 1419
3227, 1265, 1224, 1280, 1283
3228, 1268, 1238, 1286, 1298
3229, 1286, 1287, 1375, 1298
3230, 1311, 1445, 1285, 1314
3231, 1286, 1239, 1314, 1284
3232, 1286, 1239, 1284, 1238
3233, 1184, 1414,  715, 1446
3234, 1414, 1446, 1357, 1447
3235, 1414, 1180, 1184, 1149
3236, 1414, 1357, 1180, 1149
3237, 1368, 1414,  715, 1184
3238, 1414, 1149, 1184, 1368
3239, 1413, 1406, 1149, 1366
3240, 1279, 1223, 1354, 1298
3241, 1223, 1226, 1298, 1227
3242, 1227, 1260, 1448, 1434
3243, 1260, 1308, 1449, 1261
3244, 1260, 1261, 1450, 1434
3245, 1260, 1448, 1450, 1449
3246, 1260, 1226, 1448, 1362
3247, 1265, 1281, 1283, 1266
3248, 1270, 1350, 1290, 1351
3249, 1219, 1261, 1260, 1434
3250, 1290, 1189, 1246, 1350
3251,  836, 1343, 1415,  856
3252, 1386, 1383, 1351, 1390
3253, 1351, 1290, 1391, 1390
3254, 1289, 1281, 1338, 1216
3255, 1171, 1181, 1170, 1195
3256, 1225, 1224, 1227, 1280
3257, 1281, 1282, 1283, 1395
3258, 1194, 1192, 1277, 1176
3259, 1290, 1189, 1190, 1246
3260, 1188, 1206, 1244, 1243
3261, 1398, 1350, 1246, 1189
3262, 1451,  828,  827,  797
3263, 1452,  178,    3,  511
3264, 1453,  319, 1296, 1295
3265, 1188, 1190, 1246, 1244
3266, 1454, 1243, 1378, 1455
3267, 1203,  875,  869,  853
3268, 1455, 1243, 1378, 1367
3269, 1234, 1455, 1250, 1436
3270, 1455, 1243, 1250, 1456
3271, 1455, 1454, 1243, 1456
3272, 1212, 1454, 1457, 1436
3273,  544,  542, 1207, 1208
3274, 1285,  885,  181,  883
3275, 1458, 1459,  801,  839
3276, 1458, 1321, 1322,  865
3277, 1458, 1321,  865, 1460
3278, 1458, 1345, 1336, 1321
3279, 1458, 1321, 1460, 1345
3280, 1458, 1345,  860,  861
3281, 1458, 1345,  861, 1346
3282, 1411, 1352, 1461, 1412
3283, 1442, 1266, 1352, 1411
3284, 1225, 1267, 1266, 1280
3285, 1411, 1462, 1412, 1461
3286, 1411, 1421, 1463, 1423
3287, 1411, 1463,  311, 1423
3288, 1411,  311, 1280, 1423
3289, 1294, 1276, 1327, 1282
3290, 1464, 1465,  324,  322
3291, 1292, 1318, 1291, 1324
3292, 1318, 1320, 1319, 1405
3293, 1327, 1282, 1295, 1294
3294, 1466, 1323, 1325, 1326
3295, 1318, 1291, 1321, 1323
3296, 1147, 1358, 1467, 1148
3297, 1185, 1272, 1145, 1194
3298, 1180, 1356, 1183, 1150
3299, 1150, 1147, 1148, 1146
3300, 1446, 1180, 1414, 1357
3301, 1180, 1357, 1446, 1183
3302, 1153, 1150, 1180, 1183
3303, 1356, 1360,  840, 1355
3304, 1187, 1272, 1149, 1145
3305, 1142, 1180, 1147, 1149
3306, 1180, 1183, 1356, 1357
3307, 1375, 1280, 1227, 1423
3308, 1226, 1339,  304, 1468
3309, 1339, 1375, 1298, 1227
3310,  881,  879, 1469, 1375
3311, 1298, 1354,  884, 1226
3312, 1339, 1226,  882, 1468
3313,  879, 1339,  880,  303
3314,   89,  880,  302,  303
3315,  849,  867, 1320, 1470
3316, 1241, 1336, 1337, 1175
3317, 1294, 1276, 1293, 1291
3318, 1337, 1273, 1331, 1471
3319, 1321, 1459, 1336, 1458
3320, 1337, 1336, 1332, 1175
3321, 1372, 1472, 1473, 1394
3322, 1372, 1391, 1394, 1474
3323, 1372, 1472, 1352, 1374
3324, 1372, 1351, 1386, 1475
3325, 1386, 1372, 1391, 1351
3326, 1372, 1370, 1351, 1475
3327, 1341, 1443, 1470, 1264
3328, 1281, 1372, 1351, 1391
3329, 1206, 1385, 1190, 1382
3330, 1341, 1443, 1321, 1345
3331, 1257, 1443, 1264, 1256
3332, 1269, 1249, 1189, 1349
3333, 1348, 1352, 1266, 1330
3334, 1219, 1224, 1186, 1276
3335, 1340, 1242, 1341, 1278
3336, 1291, 1341, 1443, 1321
3337, 1303, 1308, 1476, 1306
3338, 1477,  885, 1285, 1284
3339, 1478, 1362, 1448, 1468
3340, 1303, 1304, 1202, 1222
3341, 1226, 1227, 1260, 1448
3342, 1383, 1388, 1389, 1390
3343, 1388,  568, 1384, 1389
3344, 1400,  884,  210,  209
3345,  150,  151,  567, 1388
3346, 1388, 1384,  568,  606
3347, 1388, 1384,  606,  635
3348, 1388,  566, 1479,  604
3349,  566,  150,  567, 1388
3350, 1473,  674,  666, 1480
3351,  685,  674,  666, 1473
3352, 1472,  685, 1475, 1473
3353, 1472, 1480,  649,  674
3354, 1472, 1374,  691,  675
3355,  691, 1472, 1475, 1374
3356, 1443, 1470, 1256, 1320
3357, 1341, 1470, 1443, 1345
3358, 1257, 1291, 1443, 1256
3359, 1291, 1443, 1256, 1320
3360, 1341, 1336, 1345, 1321
3361, 1348, 1370, 1350, 1351
3362, 1270, 1271, 1349, 1299
3363, 1350, 1351, 1387, 1246
3364, 1269, 1189, 1350, 1349
3365, 1290, 1350, 1246, 1351
3366, 1350, 1398, 1371, 1349
3367, 1189, 1398, 1350, 1349
3368, 1350, 1351, 1370, 1387
3369, 1349, 1348, 1481, 1371
3370, 1401,  748,  724,  762
3371, 1286, 1313, 1329, 1482
3372, 1299, 1420, 1364, 1330
3373, 1221, 1256, 1264, 1261
3374, 1329, 1420, 1330, 1483
3375, 1206, 1243, 1209, 1244
3376, 1408, 1209, 1382, 1484
3377,  891,  712,  196, 1258
3378, 1209, 1484, 1409, 1377
3379, 1211, 1243, 1251, 1250
3380,  708, 1365, 1457, 1367
3381, 1199,   80,  593,   81
3382, 1153, 1154, 1200, 1181
3383, 1187, 1301, 1365, 1367
3384, 1367, 1368,  707,  708
3385, 1207, 1406,  546, 1366
3386, 1166, 1211, 1156, 1157
3387, 1157, 1455, 1243, 1250
3388, 1406, 1192,  542, 1277
3389, 1379, 1207, 1366, 1378
3390, 1367, 1366,  706, 1368
3391, 1302,  711, 1258,  710
3392, 1276, 1293, 1291, 1256
3393, 1294, 1327, 1276, 1291
3394, 1291, 1256, 1319, 1320
3395, 1291, 1256, 1324, 1319
3396, 1434, 1450,  310, 1293
3397, 1293, 1450, 1256, 1434
3398, 1219, 1222, 1260, 1221
3399, 1337, 1241, 1291, 1321
3400, 1338, 1282, 1295, 1327
3401, 1282, 1485, 1283, 1395
3402, 1282, 1486, 1283, 1295
3403, 1338, 1485, 1295, 1282
3404, 1282, 1283, 1485, 1295
3405, 1487,  869, 1203,  875
3406, 1487, 1195, 1363, 1182
3407, 1487, 1182, 1363, 1343
3408,  836, 1343,  855, 1363
3409, 1203,  875,  853,  874
3410, 1487,  871, 1197, 1343
3411, 1487, 1488,  871,  875
3412, 1231, 1437, 1250, 1425
3413, 1419, 1425, 1432, 1233
3414, 1215, 1291, 1327, 1337
3415, 1165, 1419, 1232, 1364
3416, 1478,  815,  816,  830
3417, 1202, 1204, 1305, 1203
3418, 1476, 1307, 1202, 1303
3419, 1489, 1490,  524, 1491
3420, 1491, 1490,  524, 1431
3421, 1492, 1493, 1494, 1495
3422, 1492, 1496, 1497, 1494
3423, 1255, 1394, 1491, 1334
3424, 1498,  791,  824,  826
3425, 1492, 1499, 1394, 1491
3426, 1492, 1490, 1431, 1496
3427, 1431, 1394, 1491, 1492
3428, 1394, 1431, 1453, 1492
3429, 1338, 1394, 1431, 1453
3430, 1224, 1256, 1434, 1293
3431, 1167, 1156, 1217, 1162
3432, 1270, 1290, 1281, 1351
3433, 1395, 1442, 1266, 1352
3434, 1283, 1442,  313, 1411
3435, 1283, 1280,  311, 1486
3436, 1283,  313, 1442,  315
3437, 1241, 1337, 1291, 1215
3438, 1283, 1485,  315, 1442
3439, 1295, 1327, 1296, 1338
3440, 1260, 1262, 1308, 1261
3441, 1306,  825,  854, 1309
3442, 1308, 1449,  825, 1309
3443,  825, 1308, 1306,  845
3444, 1256, 1261, 1450, 1498
3445, 1256, 1319, 1320, 1498
3446, 1319, 1326, 1292, 1318
3447, 1291, 1293, 1324, 1256
3448, 1294, 1293, 1276, 1282
3449, 1241, 1341, 1257, 1291
3450, 1256, 1450, 1261, 1434
3451, 1375, 1329, 1286, 1268
3452, 1375,  881, 1298, 1287
3453, 1234, 1500, 1254, 1457
3454, 1375, 1501,  303, 1469
3455, 1227, 1423,  307, 1375
3456, 1286, 1329, 1375, 1422
3457, 1375, 1312, 1422, 1501
3458, 1362,  851,  830,  854
3459, 1227, 1298, 1225, 1375
3460, 1268, 1238, 1165, 1239
3461, 1286, 1298, 1238, 1287
3462, 1375,  303,  305, 1339
3463, 1339, 1226, 1227, 1298
3464,  304, 1502,  306, 1468
3465, 1303, 1262, 1202, 1476
3466, 1303, 1260, 1308, 1309
3467, 1503,  721, 1403,  892
3468,  881, 1298,  882, 1339
3469, 1504,  327, 1493, 1496
3470, 1434, 1227,  306, 1448
3471, 1224, 1227, 1280, 1434
3472, 1376, 1227,  306, 1434
3473, 1226, 1354,  884, 1468
3474, 1165, 1233, 1419, 1239
3475, 1268, 1239, 1286, 1238
3476, 1238,  883, 1298, 1444
3477,  883, 1298,  881, 1287
3478,  304,  305,  302, 1339
3479, 1352, 1395, 1442, 1461
3480, 1461, 1374, 1412, 1352
3481,  673, 1461, 1374, 1412
3482,  669, 1475, 1370,  687
3483, 1186, 1167, 1220, 1240
3484, 1348, 1352, 1330, 1373
3485, 1253,  195,  185,  891
3486, 1283, 1411,  311, 1280
3487, 1452,   33, 1214, 1248
3488, 1267, 1422, 1329, 1421
3489, 1505, 1369, 1328, 1151
3490, 1452,  334,  513,  511
3491, 1154, 1200, 1151, 1328
3492, 1154, 1356, 1317, 1150
3493, 1154, 1151, 1144, 1150
3494, 1151, 1506, 1278, 1152
3495, 1185, 1145, 1272, 1187
3496, 1187, 1184, 1145, 1149
3497, 1142, 1150, 1152, 1146
3498, 1220, 1257, 1241, 1341
3499, 1151, 1506, 1369, 1278
3500, 1220, 1259, 1257, 1341
3501, 1215, 1281, 1216, 1338
3502, 1391, 1386, 1351, 1390
3503, 1474, 1386, 1372, 1391
3504, 1391, 1255, 1394, 1474
3505, 1350, 1290, 1189, 1269
3506, 1391, 1334, 1338, 1394
3507, 1391, 1334, 1394, 1255
3508, 1507,  540,  154,  542
3509, 1472, 1461, 1374,  675
3510, 1472, 1395, 1480, 1394
3511, 1472, 1394, 1480, 1473
3512, 1281, 1395, 1372, 1394
3513, 1508,  763,  783,  816
3514, 1461, 1509, 1510, 1395
3515, 1185, 1145, 1143, 1194
3516, 1265, 1215, 1282, 1281
3517, 1351, 1386, 1475, 1387
3518, 1350, 1371, 1246, 1387
3519, 1228, 1299, 1266, 1267
3520, 1270, 1349, 1348, 1330
3521, 1286, 1375, 1312, 1422
3522, 1348, 1350, 1371, 1349
3523, 1243, 1251, 1456, 1511
3524, 1327, 1294, 1325, 1323
3525, 1346, 1332, 1333, 1459
3526, 1230, 1332, 1333, 1346
3527, 1337, 1335, 1273, 1512
3528, 1337, 1336, 1459, 1332
3529, 1340, 1506, 1278, 1347
3530, 1513,  850,  829,  844
3531, 1340, 1242, 1346, 1336
3532, 1340, 1152, 1506, 1514
3533, 1242, 1336, 1175, 1230
3534, 1340, 1341, 1347, 1259
3535, 1329, 1239, 1419, 1426
3536, 1286, 1329, 1422, 1482
3537, 1329, 1313, 1239, 1426
3538, 1330, 1267, 1412, 1352
3539, 1299, 1419, 1165, 1364
3540, 1486,  315,  314,  312
3541, 1163, 1172, 1169, 1170
3542, 1435, 1433,  716, 1446
3543, 1435, 1447,  203,  204
3544,  743, 1515,  764,  204
3545,  813, 1516,  771, 1435
3546, 1305,  828,  796,  851
3547, 1435, 1516, 1433, 1446
3548, 1435, 1517, 1515,  764
3549, 1435, 1516, 1517,  813
3550,  890, 1403,  892,  206
3551, 1435, 1517,  764,  813
3552, 1178, 1182, 1415, 1363
3553, 1171, 1202, 1195, 1204
3554, 1178, 1363, 1195, 1182
3555, 1198, 1205, 1195, 1196
3556, 1362,  851,  815,  830
3557, 1354, 1451, 1305, 1204
3558,  335,  512,  514, 1288
3559, 1487, 1195, 1204, 1363
3560, 1430, 1518, 1519, 1520
3561, 1430, 1518, 1521, 1522
3562, 1520, 1430, 1518, 1521
3563, 1430, 1323, 1325, 1466
3564, 1325, 1327, 1430, 1296
3565, 1430, 1323, 1466, 1519
3566, 1430, 1323, 1519, 1522
3567, 1186, 1241, 1257, 1276
3568, 1523,  784,  823,  785
3569, 1243, 1188, 1187, 1211
3570, 1398, 1232, 1252, 1524
3571, 1481, 1398, 1371, 1397
3572,  332, 1248,  330,   33
3573, 1246, 1398, 1245, 1371
3574, 1371, 1398, 1350, 1246
3575, 1317, 1505, 1154, 1150
3576, 1191, 1290, 1189, 1190
3577, 1200, 1196, 1328, 1197
3578, 1525,  722,  208,  723
3579, 1168, 1178, 1174, 1204
3580, 1182, 1183, 1153, 1178
3581, 1306, 1362,  854,  851
3582, 1306, 1303, 1362,  851
3583, 1306,  878, 1307,  863
3584, 1308, 1526,  845, 1449
3585,  866, 1308, 1526,  845
3586, 1303, 1306, 1362, 1309
3587, 1308, 1526, 1262, 1527
3588, 1308, 1476, 1306,  878
3589, 1437, 1438,  642,  659
3590,  680,  701, 1425, 1437
3591, 1437, 1252, 1456, 1250
3592, 1437, 1438, 1436,  642
3593, 1437, 1456, 1436, 1250
3594, 1344, 1197, 1317, 1328
3595, 1344, 1328,  859,  872
3596, 1344,  871, 1328,  872
3597, 1344, 1197,  871, 1343
3598, 1344, 1343,  871,  856
3599, 1406, 1272, 1149, 1366
3600, 1233, 1314, 1440, 1424
3601, 1233, 1232, 1419, 1425
3602, 1231, 1437, 1234, 1250
3603, 1419, 1524, 1232, 1528
3604, 1524, 1425, 1432, 1419
3605, 1233, 1284, 1238, 1237
3606, 1233, 1432, 1313, 1424
3607, 1313, 1424, 1314, 1233
3608, 1419, 1528, 1364, 1426
3609, 1437,  670, 1456,  689
3610, 1456, 1436,  641,  670
3611, 1145, 1187, 1172, 1184
3612, 1243, 1244, 1251, 1408
3613, 1456,  640, 1511,  682
3614, 1403,  890,  888,  207
3615, 1456, 1511,  640, 1454
3616, 1436,  641, 1454, 1456
3617, 1322, 1323, 1466, 1326
3618, 1519, 1466,  864, 1322
3619, 1321, 1322, 1323, 1471
3620, 1322, 1512,  803,  837
3621, 1322,  865, 1405,  846
3622,  857, 1506, 1529, 1505
3623, 1340, 1152, 1514, 1346
3624, 1335, 1323, 1512, 1337
3625, 1322, 1512, 1323, 1471
3626, 1324, 1292, 1293, 1291
3627, 1471, 1322,  838, 1458
3628, 1321, 1405, 1322,  865
3629, 1216, 1175, 1335, 1404
3630, 1216, 1334, 1338, 1289
3631, 1527,  866, 1308, 1526
3632, 1526, 1320,  849, 1498
3633, 1526, 1498,  826, 1449
3634, 1256, 1470, 1526, 1320
3635, 1264, 1526, 1262, 1261
3636, 1256, 1261, 1526, 1264
3637, 1526, 1470,  868,  849
3638, 1526,  868, 1527,  866
3639, 1231, 1234, 1157, 1250
3640, 1234, 1455, 1436, 1457
3641, 1234, 1438, 1437, 1424
3642, 1383, 1190, 1290, 1289
3643, 1207, 1378, 1530, 1511
3644, 1456, 1252,  689,  684
3645, 1234, 1237, 1441, 1284
3646, 1437, 1250, 1425, 1252
3647, 1211, 1157, 1231, 1232
3648, 1437, 1436, 1456,  670
3649,  689,  680, 1252, 1437
3650, 1211, 1245, 1398, 1252
3651, 1334, 1431, 1394, 1491
3652, 1531, 1453, 1532, 1394
3653, 1394, 1533, 1473, 1474
3654, 1395, 1394, 1531, 1480
3655, 1453, 1532, 1394, 1492
3656, 1464, 1534,   38, 1535
3657, 1488,  874,  876,  875
3658,  756, 1534, 1536, 1535
3659, 1535, 1464,   37,   38
3660, 1535, 1537, 1464, 1523
3661, 1535,  750, 1523,  785
3662, 1535, 1534, 1325, 1464
3663, 1192, 1406,  542, 1206
3664, 1408, 1484, 1410, 1209
3665, 1211, 1250, 1157, 1243
3666, 1408, 1511,  682, 1251
3667, 1408, 1251,  682,  684
3668, 1244, 1382, 1246, 1396
3669, 1408,  664, 1484,  631
3670, 1428,   42,  751,  752
3671, 1408, 1251,  684,  663
3672,  663, 1408, 1251, 1382
3673, 1408,  631, 1382,  663
3674, 1538, 1539, 1495, 1489
3675,  303, 1339, 1375,  879
3676, 1538,  602, 1495,  561
3677, 1225, 1375, 1280, 1227
3678, 1538, 1489,  522, 1539
3679, 1236,  143,  142,  559
3680, 1538,  522, 1489, 1493
3681,  143,  520,  144, 1538
3682, 1171, 1279, 1304, 1354
3683, 1205, 1263, 1218, 1196
3684, 1169, 1171, 1174, 1279
3685, 1487, 1195, 1182, 1197
3686, 1200, 1195, 1181, 1196
3687, 1200, 1195, 1197, 1182
3688, 1279, 1174, 1300,  888
3689, 1279, 1444,  886,  888
3690, 1444, 1354,  884, 1298
3691,  886, 1354,  884, 1444
3692, 1198, 1205, 1196, 1263
3693, 1303, 1304, 1260, 1362
3694, 1312, 1422,  655,  678
3695, 1339, 1226,  304, 1227
3696, 1169, 1300, 1174, 1173
3697, 1204, 1305, 1203, 1451
3698, 1214,  749,  729,  734
3699, 1158, 1232, 1165, 1233
3700, 1287, 1238,  883, 1298
3701, 1238,  883, 1444,  885
3702, 1233, 1239, 1314, 1313
3703, 1238, 1237,  889, 1300
3704, 1238, 1300,  887,  885
3705, 1158, 1302, 1237, 1173
3706, 1301, 1173, 1365, 1302
3707, 1276, 1257, 1186, 1219
3708, 1233, 1432, 1424, 1425
3709, 1512,  803,  805,  768
3710, 1243, 1456, 1454, 1511
3711, 1505, 1154, 1150, 1151
3712, 1364, 1528, 1232, 1398
3713, 1457, 1234, 1157, 1302
3714, 1455, 1456, 1436, 1454
3715, 1315, 1201, 1529, 1369
3716, 1289, 1191, 1281, 1216
3717, 1171, 1304, 1222, 1202
3718, 1369, 1201, 1529, 1328
3719, 1154, 1182, 1197, 1317
3720, 1219, 1221, 1257, 1220
3721, 1168, 1170, 1172, 1179
3722, 1224, 1293, 1486, 1282
3723, 1218, 1369, 1263, 1259
3724, 1349, 1364, 1398, 1481
3725, 1364, 1330, 1420, 1481
3726, 1329, 1483, 1421, 1482
3727, 1163, 1169, 1159, 1164
3728, 1299, 1426, 1364, 1420
3729, 1419, 1313, 1432, 1426
3730, 1271, 1165, 1232, 1364
3731, 1303, 1202, 1305, 1307
3732, 1304, 1226, 1223, 1260
3733, 1476, 1315, 1262, 1202
3734, 1322,  837,  803,  838
3735, 1264, 1263, 1315, 1259
3736, 1198, 1487, 1488, 1197
3737, 1293, 1324, 1256, 1450
3738, 1221, 1264, 1262, 1261
3739, 1303, 1260, 1309, 1362
3740, 1221, 1259, 1263, 1264
3741, 1526, 1264, 1527, 1470
3742, 1260, 1448, 1434, 1450
3743, 1210, 1476, 1307, 1202
3744, 1318, 1326, 1322, 1405
3745, 1263, 1315, 1262, 1264
3746,  846, 1326, 1466,  820
3747, 1340, 1341, 1336, 1345
3748, 1315, 1259, 1347, 1264
3749, 1341, 1259, 1264, 1347
3750, 1296,  321,  318,  319
3751, 1347, 1369, 1278, 1259
3752, 1341, 1336, 1321, 1241
3753, 1443, 1460, 1321, 1345
3754, 1321, 1320, 1443, 1291
3755, 1340, 1259, 1347, 1278
3756, 1155, 1194, 1146, 1175
3757, 1527, 1264, 1526, 1262
3758, 1443, 1256, 1470, 1264
3759, 1260, 1362, 1448, 1309
3760, 1369, 1259, 1347, 1315
3761, 1309, 1308, 1306,  825
3762, 1181, 1196, 1151, 1200
3763, 1256, 1320, 1526, 1498
3764, 1526, 1261, 1498, 1449
3765, 1283, 1395, 1485, 1442
3766, 1290, 1289, 1191, 1281
3767, 1224, 1283, 1282, 1486
3768, 1348, 1330, 1349, 1481
3769, 1364, 1330, 1481, 1349
3770, 1267, 1375, 1422, 1423
3771, 1348, 1370, 1372, 1374
3772, 1266, 1411, 1283, 1280
3773, 1226,  306, 1227, 1448
3774, 1471,  803,  802,  838
3775, 1421, 1412, 1483, 1329
3776, 1323, 1519, 1522, 1512
3777, 1242, 1336, 1241, 1175
3778, 1245, 1244, 1396, 1251
3779, 1267, 1421, 1411, 1423
3780, 1299, 1419, 1364, 1426
3781, 1329, 1483, 1426, 1420
3782, 1310, 1482, 1286, 1422
3783,  309, 1423,  307, 1227
3784, 1241, 1291, 1257, 1276
3785,  313, 1411,  311, 1283
3786, 1280,  311, 1376,  309
3787, 1483, 1373, 1412,  672
3788, 1370,  687,  691,  688
3789, 1267, 1280, 1375, 1423
3790, 1260, 1450, 1261, 1449
3791, 1206, 1209, 1382, 1244
3792, 1330, 1373, 1483, 1420
3793, 1411, 1461, 1352, 1442
3794,  720, 1402,  721, 1174
3795,  331, 1540,  329,  328
3796, 1164, 1238, 1444, 1300
3797, 1204, 1353, 1513, 1418
3798,  719, 1174, 1258, 1173
3799, 1174, 1173,  719, 1179
3800, 1468,  306, 1226, 1448
3801, 1466,  864,  820,  821
3802,  720,  719, 1174, 1258
3803, 1528, 1232, 1398, 1524
3804, 1154, 1151, 1505, 1328
3805, 1172, 1184, 1368, 1179
3806, 1168, 1173, 1174, 1179
3807, 1300,  887,  888,  890
3808, 1225, 1375, 1268, 1267
3809, 1211, 1250, 1252, 1232
3810, 1173, 1179, 1365,  719
3811,  710, 1302, 1365, 1258
3812, 1302, 1365, 1258, 1173
3813, 1173, 1258, 1302, 1237
3814, 1174, 1403,  721,  892
3815, 1174, 1300,  890, 1258
3816, 1237, 1258, 1302,  889
3817,  888, 1444,  885, 1300
3818, 1300, 1444,  885, 1238
3819, 1147, 1356, 1360, 1357
3820, 1356,  862, 1342, 1317
3821, 1154, 1183, 1356, 1150
3822, 1240, 1341, 1278, 1259
3823, 1150, 1514, 1355, 1505
3824, 1467, 1514, 1355, 1150
3825, 1523,  784,  785,  750
3826, 1408, 1484, 1382,  631
3827, 1382,  636, 1541,  661
3828, 1383, 1246, 1382, 1541
3829, 1206, 1190, 1385, 1192
3830, 1382,  661, 1396,  663
3831, 1382, 1408, 1251, 1244
3832, 1159, 1173, 1172, 1301
3833, 1168, 1178, 1204, 1195
3834, 1160, 1223, 1163, 1164
3835, 1233, 1239, 1238, 1284
3836, 1204, 1203, 1513, 1451
3837, 1187, 1368, 1172, 1184
3838, 1240, 1369, 1259, 1278
3839, 1171, 1279, 1353, 1174
3840, 1259, 1263, 1315, 1369
3841, 1298, 1279, 1444, 1354
3842, 1168, 1171, 1204, 1174
3843, 1383, 1246, 1541, 1387
3844, 1330, 1483, 1373, 1412
3845, 1348, 1330, 1481, 1373
3846, 1257, 1256, 1276, 1291
3847, 1163, 1171, 1181, 1170
3848, 1481,  696,  697,  694
3849, 1542, 1414, 1149, 1357
3850, 1158, 1164, 1169, 1237
3851, 1414, 1357, 1542, 1447
3852, 1357, 1542, 1359, 1149
3853, 1149, 1542, 1359,  545
3854,  542, 1206, 1377, 1192
3855, 1543,  862,  843,  832
3856, 1414,  715, 1447,  714
3857, 1357, 1517, 1515, 1447
3858,  539, 1148,  541, 1277
3859,  545, 1406, 1149, 1413
3860, 1147, 1180, 1150, 1356
3861, 1184, 1446, 1180, 1414
3862, 1537, 1544,  784,  817
3863, 1170, 1172, 1179, 1184
3864, 1178, 1415, 1183, 1417
3865, 1183, 1182, 1342, 1415
3866, 1147, 1149, 1357, 1359
3867, 1452,  511,  513,  178
3868, 1150, 1514, 1505, 1151
3869, 1181, 1369, 1151, 1196
3870, 1184, 1446,  716, 1417
3871, 1366, 1413, 1414, 1149
3872, 1398, 1211, 1232, 1249
3873,  715, 1184,  716, 1368
3874, 1414, 1447,  715, 1446
3875, 1244, 1408, 1209, 1382
3876, 1249, 1189, 1349, 1398
3877, 1142, 1153, 1150, 1180
3878, 1184, 1179, 1417,  717
3879,  877,  866, 1315,  873
3880, 1151, 1196, 1369, 1328
3881, 1178, 1418, 1204, 1363
3882, 1203, 1487, 1488, 1198
3883, 1505,  859,  857,  835
3884, 1147, 1359, 1357, 1360
3885, 1184, 1179,  717, 1368
3886, 1154, 1183, 1182, 1317
3887, 1144, 1151, 1278, 1152
3888, 1432, 1426,  695,  681
3889,  710, 1457, 1365, 1302
3890, 1528,  694, 1426, 1432
3891, 1432, 1524, 1528,  693
3892, 1160, 1167, 1223, 1219
3893, 1419, 1528, 1432, 1524
3894, 1151, 1328, 1200, 1196
3895, 1411, 1412, 1462, 1421
3896, 1151, 1514, 1505, 1506
3897, 1506, 1347, 1369, 1278
3898, 1315, 1262, 1202, 1263
3899, 1289, 1383, 1390, 1290
3900, 1289, 1404,  534,  536
3901, 1511,  658,  640,  594
3902, 1194, 1175, 1176, 1146
3903, 1326,  846,  819,  820
3904, 1192, 1190, 1385, 1289
3905, 1289,  534, 1404,  532
3906, 1187, 1157, 1301, 1367
3907, 1289,  532, 1404, 1334
3908, 1293,  314, 1324,  312
3909, 1242, 1152, 1346, 1230
3910, 1337, 1321, 1323, 1471
3911, 1277, 1142, 1146, 1149
3912, 1443, 1345, 1470, 1460
3913, 1257, 1341, 1259, 1264
3914, 1207, 1243, 1378, 1511
3915, 1206, 1385, 1382, 1377
3916, 1484,  607, 1377, 1382
3917, 1391, 1474, 1390, 1255
3918, 1235,  331,  329,   79
3919, 1252, 1211, 1232, 1398
3920, 1383, 1387, 1351, 1246
3921, 1303,  863,  851, 1306
3922, 1340, 1242, 1278, 1152
3923, 1514, 1152, 1150, 1467
3924, 1196, 1197, 1201, 1328
3925, 1154, 1317, 1197, 1328
3926, 1356, 1317, 1150, 1355
3927, 1341, 1264, 1470, 1347
3928, 1158, 1237, 1169, 1173
3929, 1246, 1541, 1387, 1371
3930, 1414,  713, 1413,  714
3931, 1175,  535, 1176, 1230
3932, 1198, 1201, 1197, 1488
3933, 1262, 1264, 1315, 1527
3934, 1152, 1242, 1155, 1230
3935, 1146, 1148,  537, 1277
3936, 1372, 1475, 1374, 1370
3937, 1281, 1372, 1395, 1352
3938, 1348, 1373, 1481, 1370
3939, 1148,  537, 1230, 1146
3940, 1369, 1529, 1347, 1506
3941, 1221, 1263, 1262, 1264
3942, 1194, 1146, 1176, 1277
3943, 1216, 1176, 1175, 1404
3944,  847, 1319,  849, 1320
3945, 1527,  868,  873,  866
3946, 1219, 1223, 1225, 1227
3947, 1514,  834,  804,  835
3948, 1335, 1334, 1327, 1215
3949, 1423, 1501,  305, 1375
3950, 1408,  664,  684,  682
3951, 1458, 1460,  865,  860
3952, 1224, 1486, 1434, 1280
3953, 1318, 1326, 1405, 1319
3954, 1514,  834,  841,  812
3955, 1545, 1333, 1274,  739
3956, 1406, 1413,  546, 1366
3957, 1546,  523,  173,  521
3958, 1345,  861,  873,  868
3959, 1546,  521,  173,  174
3960, 1546, 1520, 1518, 1521
3961,  172,  523,  173, 1546
3962, 1546,  773, 1520, 1547
3963, 1546,  773, 1547,  782
3964, 1286, 1238, 1284, 1287
3965, 1424, 1432, 1313,  699
3966,  889, 1300, 1237, 1258
3967, 1258, 1300, 1237, 1173
3968, 1237, 1302, 1441,  889
3969, 1272, 1277, 1194, 1192
3970, 1368, 1149, 1184, 1187
3971, 1528, 1481, 1397, 1398
3972, 1234, 1424, 1233, 1440
3973, 1234, 1284, 1441, 1440
3974, 1182, 1178, 1170, 1195
3975, 1234, 1254, 1302, 1457
3976, 1206, 1366, 1272, 1406
3977, 1300, 1238,  887,  889
3978, 1284, 1237,  889, 1238
3979, 1170, 1200, 1182, 1195
3980, 1455, 1234, 1157, 1457
3981, 1537,  761, 1544,  817
3982, 1537, 1523,  750,  784
3983,  326,   36, 1537,  324
3984, 1452,   32,  798,  729
3985,  331,  518,  516, 1235
3986, 1464, 1537, 1535,   37
3987, 1535, 1536,  756,  786
3988, 1537,  326, 1464, 1248
3989, 1537, 1248,  761,   35
3990,  685,  691, 1472, 1475
3991, 1475, 1473,  685,  662
3992, 1386,  662, 1474, 1475
3993, 1348, 1372, 1281, 1352
3994, 1370,  669,  688, 1387
3995,  687,  669,  688, 1370
3996, 1270, 1266, 1299, 1330
3997, 1548, 1549,  541,  163
3998, 1423, 1280, 1227,  309
3999, 1434,  310, 1450,  308
4000, 1434,  308, 1450, 1448
4001, 1503,  206,   18,  892
4002, 1157, 1455, 1367, 1243
4003, 1234, 1457, 1438, 1500
4004, 1187, 1366, 1368, 1149
4005, 1437,  642, 1436,  670
4006, 1438,  659, 1424,  654
4007,  581, 1494,  580, 1392
4008,  581, 1392, 1550, 1551
4009, 1392, 1494,  580, 1552
4010, 1392, 1494, 1504, 1551
4011, 1392,  321, 1553,   74
4012, 1392,  325, 1550, 1504
4013, 1392, 1497,  323,  325
4014, 1392, 1497,  321,  323
4015, 1384, 1554, 1385, 1555
4016, 1384,  639, 1554,  597
4017,   89,  303,   90,  880
4018, 1190, 1385, 1289, 1383
4019, 1384, 1387,  639,  635
4020, 1536, 1556, 1534,  793
4021, 1557, 1556,  760, 1381
4022, 1556, 1557,  790, 1326
4023, 1558, 1450, 1361, 1559
4024, 1519,  805,  837,  831
4025, 1450, 1324, 1428, 1558
4026,  759, 1558, 1361, 1559
4027, 1558,  759,  752, 1559
4028, 1558, 1428,  752,   42
4029, 1558, 1559,  752, 1428
4030, 1207, 1243, 1206, 1367
4031, 1178, 1183, 1184, 1417
4032, 1175, 1176, 1146, 1230
4033, 1524,  693, 1399, 1397
4034,  693, 1252,  680, 1524
4035,  865, 1458,  839,  838
4036, 1524, 1425,  680,  700
4037, 1477,  182, 1285,  885
4038, 1432, 1524,  700, 1425
4039, 1560, 1530, 1378, 1454
4040, 1560,  551,  192, 1530
4041, 1560,  594,  552,  551
4042, 1560, 1561,  189, 1212
4043, 1196, 1263, 1369, 1315
4044, 1337, 1335, 1175, 1332
4045, 1560, 1457, 1212, 1454
4046,  709, 1560,  708, 1457
4047, 1457, 1561,  709, 1560
4048, 1560, 1378,  707,  708
4049,  750,   36,   37, 1537
4050,  322, 1534,   38, 1464
4051, 1534, 1381,  318,   39
4052, 1534, 1464,  322, 1325
4053, 1534, 1381, 1325,  318
4054, 1366,  705,  715,  714
4055, 1498, 1428,  788,  791
4056, 1498,  788, 1319,  818
4057, 1308, 1526, 1261, 1262
4058, 1526,  826, 1498,  848
4059, 1526,  848, 1498,  849
4060, 1498,  818, 1319,  849
4061, 1427,  316, 1292, 1381
4062, 1381, 1427,   41,  758
4063, 1381, 1427,  758, 1557
4064, 1534,  793,  757, 1536
4065,  760, 1534,   39, 1381
4066, 1535,   38,  756, 1534
4067, 1381,   41, 1427,  316
4068, 1534,  318, 1325,  320
4069, 1381, 1292,  318,  316
4070, 1363,  809, 1415, 1418
4071, 1363, 1418,  850,  809
4072, 1487, 1513, 1204, 1203
4073, 1343,  855, 1363, 1487
4074, 1182, 1415, 1363, 1343
4075, 1236,  516,  142,  518
4076, 1174, 1403,  892,  890
4077, 1433,  717, 1316,  201
4078, 1433, 1316,  717, 1417
4079, 1446, 1435,  715,  716
4080,  695, 1482, 1426, 1313
4081,  676, 1421,  672, 1483
4082, 1452,   31,   32,  334
4083,  676, 1483,  681, 1482
4084, 1482,  653, 1421, 1422
4085, 1458,  842,  839,  801
4086, 1329, 1426, 1482, 1313
4087, 1482, 1422,  660,  653
4088, 1435,  771, 1433, 1516
4089, 1433, 1416,  744,  201
4090, 1433, 1417, 1446, 1516
4091, 1316,  199, 1562,  746
4092, 1433, 1417,  717,  716
4093, 1417, 1178, 1415, 1316
4094,  746,  200,  745, 1416
4095, 1416,  200,  745,  201
4096, 1549, 1148, 1229, 1467
4097, 1229, 1549,  541, 1148
4098, 1549, 1148, 1358, 1359
4099,  164, 1549,  541, 1229
4100, 1406,  545, 1149,  543
4101,  742,  163, 1358, 1548
4102,  541, 1548,  543, 1359
4103, 1430, 1522, 1521, 1429
4104, 1468,  726, 1563,  210
4105, 1563,  884, 1400, 1354
4106,  302, 1564, 1502, 1468
4107, 1444,  883,  886,  885
4108, 1432, 1424,  701,  699
4109, 1432, 1426, 1313,  695
4110,  681,  695, 1482, 1426
4111, 1426, 1420,  692,  694
4112, 1207, 1380, 1407, 1379
4113, 1483, 1426, 1420,  692
4114,  305, 1339,  307, 1375
4115, 1419, 1426, 1432, 1528
4116, 1426,  694, 1528, 1420
4117, 1556, 1536, 1325, 1326
4118,  760,  793,  757, 1534
4119, 1427,  314, 1324, 1292
4120, 1427,  758, 1557,  787
4121, 1427, 1292, 1324, 1319
4122, 1275, 1565,  147, 1255
4123, 1566,  526, 1491, 1539
4124,  530,  148,  528, 1255
4125, 1255,  149, 1275, 1567
4126,  148,  530,  149, 1255
4127, 1548, 1542, 1359, 1568
4128,  163, 1358, 1548, 1549
4129, 1549, 1358, 1548, 1359
4130, 1359, 1549,  541, 1548
4131, 1548,  545, 1542,  161
4132, 1548, 1359, 1542,  545
4133,  544,  156,  155, 1380
4134, 1376,  311,  308,  309
4135, 1507,  153, 1555,  570
4136, 1507, 1555,  153,  540
4137, 1507, 1377, 1555,  540
4138, 1507,  570, 1409,  571
4139, 1507, 1377, 1208, 1409
4140, 1507, 1409,  155,  571
4141, 1172, 1365, 1179, 1368
4142, 1174, 1179,  719, 1177
4143, 1202, 1203, 1307, 1210
4144, 1302,  710, 1254,  711
4145, 1258, 1365,  710,  719
4146, 1174, 1401, 1418, 1402
4147, 1174, 1258,  721,  720
4148, 1477, 1445, 1440, 1284
4149, 1477, 1445,  590, 1440
4150,  590,  183,  588, 1445
4151, 1441, 1477,  183,  590
4152,   23, 1288,  335,  334
4153,    2,  139,   81,  335
4154, 1324,   42,  314, 1427
4155, 1375,  879, 1469,  303
4156, 1256, 1498, 1450, 1324
4157, 1450, 1361, 1559, 1449
4158, 1558, 1450, 1559, 1428
4159, 1558, 1450, 1324,  310
4160, 1448, 1434,  308,  306
4161, 1324, 1293,  312,  310
4162,  312, 1486,  310, 1293
4163, 1479, 1275,  605,  565
4164, 1390, 1389, 1567, 1388
4165, 1479,  149,  150, 1567
4166, 1479, 1255, 1275, 1567
4167, 1479,  605, 1386,  604
4168, 1453, 1395, 1338, 1394
4169, 1394, 1474, 1255, 1533
4170, 1473, 1474, 1533,  632
4171, 1473, 1474,  632,  662
4172, 1394, 1532, 1531, 1480
4173, 1372, 1475, 1472, 1374
4174, 1352, 1330, 1373, 1412
4175, 1258,  892,  721,  196
4176,  514,  335,  333, 1199
4177, 1391, 1289, 1334, 1390
4178, 1372, 1352, 1472, 1395
4179, 1480, 1472, 1473,  674
4180, 1400, 1353,  888, 1403
4181, 1563, 1400,  797, 1305
4182, 1400, 1451, 1305, 1354
4183,  884, 1468, 1563,  210
4184, 1400, 1353,  886,  888
4185, 1354, 1468, 1563,  884
4186, 1502, 1564,   47,  783
4187, 1502, 1478, 1361, 1448
4188, 1502,  306, 1448, 1361
4189, 1362, 1448, 1468, 1226
4190, 1468, 1564,  880,  302
4191, 1468,  302,  304, 1502
4192, 1343,  836,  855,  871
4193, 1406, 1149,  541,  543
4194, 1502,  306, 1468, 1448
4195, 1491,  524, 1489, 1539
4196, 1491, 1565, 1499, 1533
4197, 1565,  147,  563,  564
4198, 1566, 1491, 1255, 1565
4199, 1491, 1431,  528, 1334
4200, 1566, 1565, 1569, 1491
4201, 1463,  620, 1421, 1462
4202, 1463, 1462,  576,  620
4203,  536, 1404,  533, 1176
4204,   69, 1463, 1423,  311
4205, 1463, 1411,  311,  313
4206, 1570, 1463,  620, 1421
4207, 1411, 1462, 1463, 1421
4208, 1463, 1462, 1442, 1571
4209, 1487, 1204, 1195, 1203
4210, 1203,  874, 1210, 1488
4211,  853, 1307, 1305, 1203
4212, 1487, 1203, 1488,  875
4213, 1203,  874, 1488,  875
4214, 1204, 1353, 1451, 1513
4215, 1229, 1274,  535,  166
4216, 1229, 1230, 1274, 1545
4217, 1467, 1229, 1230, 1148
4218, 1229, 1545,  739,  740
4219, 1230, 1176, 1146,  537
4220, 1148,  537, 1277,  539
4221, 1519,  805,  808,  780
4222, 1247, 1544, 1248, 1572
4223,  328,  517, 1540, 1247
4224, 1540,  517,  519, 1247
4225, 1247,  326, 1540,  328
4226,  867, 1320, 1470, 1460
4227, 1443, 1320, 1460, 1470
4228, 1519,  805,  831,  808
4229, 1428, 1450, 1559, 1498
4230, 1260, 1449, 1309, 1448
4231, 1427, 1319, 1324, 1428
4232, 1558, 1324,  312,  310
4233, 1293, 1324,  314, 1292
4234, 1435, 1447, 1515, 1517
4235, 1515,  204,  743,  205
4236, 1515, 1517,  800,  764
4237, 1515, 1542,  205,  160
4238, 1515, 1542,  160,  161
4239,  646, 1462, 1412, 1421
4240, 1462,  620, 1421,  646
4241, 1462, 1412, 1461,  647
4242, 1462, 1571,  613, 1461
4243, 1462, 1461,  613,  647
4244, 1463, 1421, 1570, 1423
4245, 1411, 1462, 1461, 1442
4246,   79, 1235,   80, 1297
4247, 1508,  212,  763,  211
4248, 1560,  191,  551,  552
4249, 1564,  212,   89,    5
4250, 1508, 1502,  754,  783
4251,  852,  212,  763, 1508
4252, 1564,  783, 1508,  852
4253, 1564,  302,   47,    5
4254, 1549, 1358, 1467,  741
4255, 1346,  861, 1506, 1340
4256, 1516, 1183, 1415, 1417
4257, 1193, 1289, 1190, 1192
4258, 1332, 1336, 1346, 1230
4259, 1230, 1545, 1333, 1274
4260, 1545, 1467, 1229, 1230
4261, 1152, 1467, 1230, 1148
4262, 1573,  188,  555,  187
4263, 1573, 1254,  187,  186
4264,  556, 1253,  591, 1573
4265, 1414,  547, 1542,  545
4266, 1573,  625, 1439,  591
4267, 1573,  186, 1253, 1254
4268, 1254, 1573, 1439, 1253
4269, 1253, 1573, 1439,  591
4270, 1393, 1552,  587,  618
4271, 1393,   74, 1553,  579
4272, 1393, 1532, 1497, 1552
4273, 1553, 1393,  579, 1574
4274, 1373,  673, 1374, 1412
4275, 1373, 1374,  673,  690
4276,  672, 1373,  692, 1483
4277, 1262, 1221, 1261, 1260
4278, 1233, 1419, 1313, 1432
4279, 1235, 1575, 1504, 1493
4280, 1235, 1493, 1504,  327
4281, 1235, 1550,  327, 1504
4282, 1235, 1236,  518,  516
4283, 1235, 1297,   79, 1575
4284,   80, 1199,  557, 1297
4285,  329,   78,  327, 1235
4286, 1508,  726,  763,  815
4287,  148,  564,  147, 1275
4288,  148, 1255,  149, 1275
4289, 1479, 1474, 1390, 1386
4290, 1468, 1564,  212,  880
4291, 1275, 1474,  611, 1533
4292, 1479, 1474, 1255, 1390
4293, 1275, 1565, 1255, 1533
4294, 1275,  564, 1565,  611
4295, 1399, 1252,  684,  689
4296, 1399,  683, 1396,  696
4297, 1524, 1252, 1399,  693
4298, 1524, 1397, 1528,  693
4299, 1399, 1252,  689,  693
4300, 1399,  696, 1397,  693
4301, 1477, 1285, 1445, 1284
4302, 1415,  809,  836,  811
4303, 1445,  549, 1311,  182
4304, 1311,  182, 1285, 1445
4305, 1339,  882,  879,  880
4306, 1570, 1576,  575,   68
4307, 1463, 1423, 1570,  585
4308, 1288,  332,  334,  513
4309, 1546,  173,  736,  730
4310, 1472,  675,  674,  649
4311, 1490,  522,  519,  520
4312,  578, 1574,  586,  621
4313, 1423,   68, 1576, 1570
4314, 1570, 1422, 1423, 1421
4315, 1570,  575, 1577,  615
4316, 1327, 1337, 1323, 1335
4317, 1393,  618,  587,  579
4318, 1345, 1460,  860,  867
4319, 1447,  713,  714,  204
4320, 1458, 1346,  861,  842
4321, 1461,  648,  613,  647
4322, 1529,  857,  870,  858
4323, 1546,  519,  521,  174
4324,  841, 1346,  861, 1506
4325,  861, 1345, 1340, 1346
4326, 1162, 1145, 1172, 1217
4327, 1458, 1345, 1460,  860
4328, 1345,  861,  868,  867
4329, 1335, 1175,  533, 1404
4330, 1458, 1321, 1471, 1322
4331, 1430, 1547, 1521, 1520
4332, 1537, 1464, 1547, 1544
4333,  324,   36, 1537,   37
4334, 1535, 1523, 1325, 1578
4335,  823, 1520, 1547, 1578
4336, 1523, 1547,  823,  784
4337, 1477,  885,  887,  182
4338,  574, 1501,   66,  584
4339, 1176, 1277,  540, 1192
4340, 1462,  613,  576,  620
4341, 1449,  826,  792,  791
4342, 1149, 1146, 1277, 1148
4343, 1463,  585,  576,   69
4344, 1571,  614,  577,  613
4345, 1192, 1277,  540,  542
4346, 1148,  541, 1277, 1149
4347, 1155, 1230, 1146, 1152
4348,  324, 1247, 1540, 1465
4349, 1452,  513,  334,  332
4350,  651,  617, 1574,  650
4351,  697, 1370, 1371, 1481
4352, 1373,  697, 1370,  690
4353, 1383, 1541, 1384, 1387
4354,  613, 1571,  614,  648
4355,  691, 1475, 1370, 1374
4356, 1544,  817,  794,  782
4357, 1391, 1289, 1338, 1334
4358,  687,  691, 1475, 1370
4359, 1355,  804,  807,  835
4360, 1387, 1475, 1370,  669
4361, 1372, 1473, 1475, 1474
4362, 1224, 1280, 1283, 1486
4363, 1492, 1394, 1499, 1532
4364, 1243, 1511, 1408, 1251
4365, 1537,   35,  761,  755
4366, 1463,   69,  576,   70
4367, 1304, 1354, 1226, 1362
4368,  688, 1387, 1371, 1370
4369, 1548,  728,  742,  162
4370, 1559,  752, 1428,  791
4371, 1361, 1558,   43,  310
4372, 1368,  707,  716,  706
4373, 1203,  827,  853,  869
4374, 1298, 1444,  883,  884
4375, 1258,  889,  890,  892
4376, 1559,  792, 1449, 1361
4377, 1450, 1361, 1448,  308
4378, 1305,  797,  796,  828
4379, 1477, 1441,  889, 1284
4380, 1568, 1358,  742,  776
4381,  742, 1568,  728, 1548
4382,  740, 1549,  741,  164
4383, 1579, 1518,  170,  732
4384, 1147, 1467, 1358, 1360
4385, 1515,  161,  728, 1548
4386, 1467,  775,  741, 1358
4387,  774, 1467,  775,  741
4388, 1357, 1568, 1515, 1517
4389, 1357, 1515, 1568, 1542
4390,  713, 1447, 1414, 1542
4391, 1149, 1366, 1368, 1414
4392,  545, 1414, 1149, 1542
4393, 1310, 1311, 1312, 1287
4394, 1312, 1311,  589, 1287
4395, 1286, 1312, 1375, 1287
4396, 1422, 1310,  678, 1312
4397, 1306,  878,  854,  845
4398, 1248,  513, 1214, 1452
4399, 1571, 1509, 1510, 1461
4400,  332,  513, 1248, 1452
4401, 1452,  511,    3,   24
4402, 1571, 1510,  578,  614
4403, 1571,  578, 1509,   71
4404,  512,  511, 1288,   24
4405, 1452,  798,   31,  178
4406, 1214,  513,  177, 1452
4407, 1463,  576, 1571,   70
4408, 1571,  313,   70,   71
4409, 1579, 1518,  768, 1512
4410, 1579, 1273, 1471, 1331
4411, 1540, 1288,  331,  516
4412,  517, 1214,  515,  176
4413,  169, 1273, 1579,  737
4414, 1312, 1501,  574, 1577
4415, 1273,  168,  737,  169
4416, 1534,  320,   39,  318
4417, 1579, 1273, 1512, 1471
4418,  514, 1236,  516,  141
4419, 1288,  513,  511,  514
4420, 1288,  511,  512,  514
4421, 1400,  886,  884,  209
4422,  512,   24, 1288,   23
4423,   24, 1288,   23,  334
4424, 1579, 1512,  768,  781
4425, 1368,  706,  716,  715
4426, 1214, 1452,  177,  729
4427, 1452, 1214,   33,  729
4428, 1158, 1233, 1238, 1237
4429, 1452,   24,  334,  511
4430, 1452,  177,  798,  178
4431, 1199,  557,  141,  140
4432, 1452,  798,   32,   31
4433, 1553,   72,  586,   73
4434,  139,   81,  335, 1199
4435, 1548, 1515,  161, 1542
4436, 1357, 1568, 1517, 1543
4437, 1358, 1568, 1359, 1360
4438, 1568,  800, 1517,  833
4439, 1515, 1517, 1568,  800
4440, 1358,  776, 1568, 1360
4441, 1568, 1542, 1359, 1357
4442, 1548, 1358, 1568, 1359
4443, 1452,  177,  178,  513
4444,  871, 1201, 1488, 1197
4445, 1563,  725,  726,  796
4446, 1183, 1184, 1417, 1446
4447, 1487, 1182, 1343, 1197
4448, 1452,  729,  798,  177
4449,  177, 1214,  176,  515
4450, 1199,  139,  140,  512
4451,  331,  328,  330, 1540
4452, 1344, 1197, 1328,  871
4453, 1169, 1164, 1279, 1300
4454, 1573, 1500, 1254, 1439
4455, 1500, 1561,  554,  188
4456, 1258,  891,  892,  196
4457,  139,  335,   23,  512
4458, 1199,  140,  593,  557
4459, 1500, 1212,  595,  554
4460, 1328,  857,  859,  872
4461, 1500,  188,  555, 1573
4462, 1500, 1457, 1212, 1561
4463, 1212,  552, 1454,  598
4464, 1438, 1500,  595,  599
4465, 1288,  513,  515,  332
4466, 1438, 1436,  642,  595
4467, 1560, 1454, 1378, 1457
4468, 1212, 1436,  595,  598
4469, 1207, 1379, 1530, 1378
4470, 1530,  192, 1379,  592
4471, 1530, 1407,  628,  592
4472, 1492, 1496, 1493, 1490
4473, 1214, 1544,  761,  794
4474, 1490, 1496, 1493, 1540
4475,  518,  143,  142, 1236
4476, 1199, 1235, 1297,   80
4477, 1490, 1540,  520,  519
4478, 1540, 1288,  516,  515
4479, 1490,  519, 1247, 1540
4480, 1490, 1465, 1496, 1540
4481, 1345, 1470, 1460,  867
4482,  873, 1470,  868, 1527
4483,  585, 1423, 1570,   68
4484, 1514, 1152, 1151, 1150
4485, 1238,  885, 1284,  883
4486, 1318, 1319, 1324, 1292
4487, 1293, 1292,  314, 1295
4488, 1453,  319, 1531,  321
4489,  533, 1332,  535, 1175
4490, 1572, 1214,  517,  175
4491, 1404,  534,  533,  531
4492,  524,  523, 1431, 1490
4493, 1288,  330,  332,  515
4494, 1171, 1181, 1205, 1163
4495,  882, 1339, 1298, 1226
4496, 1303, 1260, 1304, 1222
4497, 1563,  796,  797,  725
4498, 1563,  210,  726,  725
4499,  844, 1525,  795,  814
4500, 1509,   71,  578,   72
4501, 1236,  142,  516,  141
4502, 1219, 1276, 1257, 1256
4503, 1476, 1202, 1210, 1315
4504, 1532,  652, 1552,  618
4505,  650,  651, 1480, 1574
4506, 1540,  520,  519,  517
4507, 1574,  651, 1480, 1532
4508, 1532,  652, 1580, 1552
4509, 1559,  791,  759,  752
4510,  851, 1303, 1362, 1305
4511, 1362, 1309,  854,  830
4512,  815, 1468, 1362, 1478
4513, 1362, 1478, 1448, 1309
4514, 1490,  522,  524,  521
4515, 1552,  638,  622,  652
4516, 1226, 1468, 1362, 1354
4517, 1304, 1362, 1305, 1354
4518, 1569, 1539,  562,  146
4519,  174, 1572, 1546,  519
4520, 1569, 1580, 1495, 1491
4521, 1572,  782, 1544,  735
4522, 1539,  596,  561, 1495
4523,  562,  596,  561, 1539
4524, 1569, 1565,  563,  603
4525,  518, 1538,  520,  143
4526,  143, 1538, 1236,  518
4527, 1569, 1499, 1565,  603
4528, 1442, 1509,  315, 1571
4529,  303,   65,   90,  879
4530,  879,   65,   90,    8
4531, 1469, 1285,  881, 1287
4532, 1501, 1469, 1375, 1312
4533, 1485, 1295,  317,  319
4534, 1469, 1501,   65,  574
4535, 1403,  892,  206, 1503
4536, 1375, 1469,  881, 1287
4537, 1235, 1504, 1575, 1550
4538, 1575,   77, 1235, 1550
4539,   78,  582,   77, 1575
4540, 1575,  558, 1297,  583
4541, 1575, 1551,  703,  582
4542, 1328,  857,  872,  870
4543,  195,  185,  186, 1253
4544, 1302, 1254,  712,  711
4545,  172, 1518, 1522, 1521
4546, 1253, 1254,  186,  712
4547,  889, 1477,  183, 1441
4548, 1301, 1457, 1302, 1365
4549, 1573,  556, 1253,  186
4550, 1253, 1441,  184,  591
4551, 1376,  311, 1486,  310
4552, 1295,  316,  317,  319
4553, 1264, 1315, 1527, 1347
4554, 1490,  521,  519,  522
4555, 1498,  824,  848,  826
4556, 1476, 1527,  866, 1308
4557, 1315, 1527,  866, 1476
4558, 1539,  146,  526,  524
4559, 1527, 1347,  873, 1470
4560, 1308,  878, 1306,  845
4561, 1526, 1470, 1527,  868
4562, 1451, 1525,  723,  795
4563, 1505,  835,  857,  834
4564,  533, 1273,  531,  168
4565, 1451, 1353, 1354, 1400
4566, 1203,  828, 1451, 1305
4567, 1451,  797, 1305,  828
4568,  521, 1521, 1546,  523
4569, 1451, 1525, 1513, 1353
4570, 1400, 1563, 1354, 1305
4571,  523, 1521, 1546,  172
4572, 1202, 1203, 1305, 1307
4573, 1316, 1178, 1415, 1562
4574, 1184,  716, 1368,  717
4575, 1433, 1316, 1417, 1416
4576, 1179, 1417,  718, 1177
4577,  522,  145, 1538, 1539
4578, 1285, 1286, 1287, 1311
4579, 1285, 1314, 1286, 1311
4580, 1445, 1314, 1311,  643
4581, 1314, 1313,  677,  699
4582,  150, 1389, 1567,  532
4583, 1314, 1424,  679, 1440
4584, 1539,  524,  522,  145
4585, 1445,  656, 1314,  643
4586, 1456, 1251, 1252,  684
4587, 1314, 1440,  679,  656
4588, 1445, 1314,  656, 1440
4589, 1445, 1314, 1440, 1284
4590, 1310, 1286, 1314, 1311
4591, 1310, 1286, 1312, 1422
4592, 1533,  632,  634,  666
4593, 1312, 1469,  589,  574
4594, 1522,  172,  525,  171
4595,  181,  182, 1285, 1311
4596, 1445,  643, 1311,  549
4597, 1311,  180, 1285,  181
4598,  171, 1518, 1522,  172
4599,  589, 1469, 1285,  180
4600, 1312,  589, 1311,  644
4601, 1332, 1273, 1331, 1337
4602, 1539,  145,  146,  524
4603, 1579, 1518, 1522,  170
4604, 1521,  172,  525, 1522
4605, 1521, 1518, 1546,  172
4606, 1518,  780,  768, 1512
4607, 1518, 1522, 1519, 1512
4608, 1579, 1273,  169,  170
4609,  171,  527, 1522,  170
4610,  736,  731,  172, 1546
4611, 1546,  731,  172, 1518
4612,  767,  808,  780, 1518
4613, 1518, 1520,  731,  767
4614, 1518,  808,  780, 1519
4615, 1490, 1489,  524,  522
4616, 1490, 1431, 1496, 1465
4617,   42, 1428, 1324, 1558
4618, 1492, 1552, 1532, 1580
4619, 1496, 1453,  321, 1465
4620, 1496, 1465,  323,  325
4621, 1474, 1533,  632,  611
4622,  529, 1522,  527,  170
4623,  170,  171, 1518, 1522
4624, 1474,  629, 1386,  605
4625,  565,  149,  566, 1479
4626, 1154, 1328, 1505, 1317
4627, 1479, 1275, 1255, 1474
4628, 1431,  527,  525,  528
4629, 1494, 1552,  622,  580
4630, 1492, 1494, 1552, 1580
4631,  533, 1176,  535,  536
4632,  705,  704,  714, 1366
4633, 1493, 1492, 1489, 1495
4634, 1392, 1494, 1552, 1497
4635, 1494, 1493, 1504, 1581
4636, 1477, 1445, 1285,  182
4637, 1445, 1440,  656,  590
4638, 1285,  881, 1287,  883
4639, 1469,  881, 1285,  180
4640, 1285,  589, 1311, 1287
4641, 1461,  673,  675,  648
4642, 1320,  847, 1319, 1405
4643, 1310, 1314,  677,  623
4644, 1477, 1284,  887,  885
4645, 1285, 1287, 1284,  883
4646, 1273,  169,  170,  529
4647, 1245, 1396, 1244, 1246
4648,   42, 1558, 1324,  312
4649, 1410,  664,  630, 1484
4650, 1255,  147,  528, 1566
4651, 1334,  530,  527,  528
4652,  531, 1334, 1404,  532
4653,  658,  664,  630, 1410
4654,  518,  327, 1235,  329
4655, 1517,  813,  833,  800
4656, 1253,  591,  184,  185
4657, 1511, 1454,  594,  640
4658,  148, 1275,  147, 1255
4659, 1455, 1301, 1367, 1457
4660, 1456, 1511, 1251,  682
4661, 1478,  789, 1309,  830
4662, 1478,  754, 1361,  789
4663, 1508, 1564,  212, 1468
4664, 1478, 1309, 1361, 1448
4665, 1373,  690,  692,  697
4666,  785,  786,  822, 1535
4667, 1535, 1523, 1578,  785
4668, 1374,  691,  675,  673
4669, 1556, 1325, 1534, 1381
4670,  822, 1536, 1466, 1578
4671, 1536, 1535, 1578,  822
4672, 1273,  531,  168,  169
4673, 1556, 1536, 1534, 1325
4674, 1534,   38,  756,  757
4675, 1556,  793, 1536, 1326
4676, 1543,  843,  833,  813
4677,  532,  529,  531, 1334
4678,  821,  820, 1466, 1536
4679, 1367, 1365, 1368,  708
4680, 1368,  708, 1365,  717
4681, 1368,  715, 1366,  706
4682, 1147, 1149, 1359, 1148
4683, 1151, 1505, 1369, 1506
4684, 1197, 1342, 1317, 1182
4685, 1368, 1367,  707,  706
4686, 1414, 1368,  715, 1366
4687,  716, 1417,  717, 1184
4688, 1374,  691,  673,  690
4689, 1274,  535, 1332, 1230
4690, 1404,  532,  534,  531
4691, 1344, 1342, 1317, 1197
4692, 1297,  558,  557,  583
4693, 1461, 1412,  673,  647
4694,  533,  168,  167, 1274
4695, 1531, 1510, 1509, 1395
4696,  648, 1571,  614, 1510
4697, 1183, 1446, 1417, 1516
4698, 1415,  809, 1562, 1418
4699, 1176,  538,  535,  536
4700, 1182, 1343, 1197, 1342
4701, 1178, 1415, 1562, 1418
4702, 1178, 1363, 1415, 1418
4703, 1529, 1505, 1369, 1328
4704, 1562, 1177, 1316, 1178
4705, 1321, 1241, 1291, 1341
4706, 1465, 1540,  327, 1496
4707, 1288,  333,  330,  331
4708, 1288,  516,  515,  513
4709, 1389,  534,  150,  151
4710,  326,  324, 1247, 1540
4711, 1564,  880,  302,   89
4712, 1274,  167,  535,  166
4713,  537, 1277,  540, 1176
4714, 1528,  693, 1397,  694
4715, 1496, 1453, 1497,  321
4716, 1540,  518,  516,  331
4717, 1229, 1467, 1545,  740
4718, 1572, 1248, 1247,  517
4719, 1540,  518, 1493,  520
4720, 1540,  328,  330,  515
4721, 1461,  673, 1374,  675
4722, 1372, 1395, 1472, 1394
4723, 1395, 1442, 1461, 1509
4724, 1469, 1375, 1312, 1287
4725, 1375, 1423,  307,  305
4726, 1176,  537,  535,  538
4727, 1576, 1501,  305, 1423
4728, 1576, 1577,  584, 1501
4729, 1356, 1360, 1357, 1543
4730, 1375, 1501, 1422, 1423
4731, 1506,  834,  857,  858
4732, 1501, 1423, 1577, 1422
4733, 1233, 1239, 1284, 1314
4734, 1417, 1416, 1415, 1516
4735,  541, 1229,  539,  164
4736, 1303, 1307, 1305,  863
4737, 1229,  165,  166,  537
4738, 1305,  853,  828,  863
4739,  704,   15,  548, 1380
4740, 1554,  639,  636,  597
4741,  827,  828, 1451, 1203
4742, 1487, 1195, 1198, 1203
4743, 1343,  836,  871,  856
4744,  540, 1176,  538,  537
4745, 1506,  858,  861,  841
4746, 1363, 1513,  850, 1418
4747, 1305, 1202, 1304, 1204
4748, 1210,  878, 1476, 1315
4749,  874, 1210,  878, 1307
4750, 1488, 1203, 1198, 1210
4751, 1178, 1170, 1195, 1168
4752, 1192, 1385,  540,  538
4753,  164, 1229,  740, 1549
4754, 1332, 1335, 1175,  533
4755, 1455, 1456, 1250, 1436
4756, 1193, 1289, 1192, 1176
4757, 1162, 1187, 1166, 1159
4758, 1252, 1398, 1399, 1245
4759,  538,  536, 1176, 1192
4760, 1438, 1500,  599, 1439
4761, 1254, 1561,  710, 1457
4762,  591, 1253, 1441, 1439
4763, 1555,  153,  540,  538
4764,  726,  211, 1468, 1508
4765, 1573, 1439,  625,  599
4766, 1573,  599, 1500, 1439
4767, 1561, 1254,  188, 1500
4768,  188, 1254,  187, 1573
4769, 1381, 1427, 1557, 1292
4770, 1556, 1326,  790,  793
4771, 1326, 1556, 1381, 1325
4772, 1381, 1557,  758,  760
4773, 1427,  787, 1557, 1319
4774, 1360,  776,  806,  775
4775, 1557, 1319,  787,  819
4776, 1171, 1353, 1279, 1354
4777, 1557, 1326, 1319,  819
4778, 1554, 1555,  568,  569
4779, 1549,  541,  163,  164
4780, 1555,  570,  569, 1554
4781,  607, 1377, 1382, 1554
4782, 1382, 1484,  607,  631
4783, 1513,  844,  829,  814
4784, 1541, 1383, 1384, 1382
4785, 1554, 1541,  636,  639
4786, 1521, 1522,  525, 1429
4787, 1578, 1520, 1547, 1430
4788, 1430, 1296, 1465, 1325
4789, 1535,  786,  822, 1536
4790, 1464,  322, 1325, 1465
4791,   37,  324, 1464, 1537
4792, 1247, 1464,  326, 1248
4793, 1429, 1490,  523, 1247
4794, 1555,  153,  538,  152
4795, 1530,  628,  594,  551
4796,  190, 1560,  708,  709
4797, 1535, 1534, 1536, 1325
4798, 1507,  540,  153,  154
4799, 1472, 1461,  675,  649
4800, 1509, 1442, 1461, 1571
4801, 1510,  650, 1574,  621
4802, 1510, 1574,  650, 1480
4803, 1462, 1571,  576,  613
4804, 1409, 1380, 1507,  155
4805, 1510, 1461,  648, 1571
4806, 1331, 1337, 1459, 1332
4807, 1345,  861,  867,  860
4808, 1415,  811,  772,  809
4809, 1183, 1342, 1182, 1317
4810, 1522, 1323, 1512, 1335
4811, 1273, 1332,  533, 1335
4812, 1507,  544,  542,  155
4813, 1366, 1378,  706, 1379
4814,  170, 1273,  529, 1522
4815, 1507,  155,  542,  154
4816, 1424,  701,  699,  679
4817, 1522, 1273,  529, 1335
4818, 1490, 1492, 1491, 1489
4819, 1338, 1431, 1394, 1334
4820, 1491, 1566, 1539, 1569
4821, 1569, 1566, 1539,  146
4822, 1569,  563, 1565,  146
4823,  146, 1566,  147, 1565
4824, 1565, 1533,  612, 1499
4825, 1565, 1499,  612,  603
4826, 1380,  705,  704,  194
4827, 1451, 1525,  795,  844
4828,  205, 1447, 1515,  204
4829, 1362, 1563,  796, 1305
4830, 1362,  851, 1305,  796
4831, 1368,  717,  707,  708
4832, 1317,  856,  859,  862
4833,  548, 1366, 1380,  546
4834, 1368,  707,  717,  716
4835, 1563, 1305,  797,  796
4836, 1468,  815, 1563,  726
4837,  726, 1508, 1468,  815
4838,  546,  544, 1380,  156
4839,  155, 1380, 1507,  544
4840, 1498,  826, 1449,  791
4841, 1437,  680,  659,  670
4842, 1413,  546,  548,  545
4843, 1449,  825, 1309,  792
4844, 1450, 1449, 1448, 1361
4845, 1308,  825, 1449,  845
4846, 1320,  849, 1498, 1319
4847, 1308, 1476,  878,  866
4848, 1543,  832,  843,  799
4849, 1467, 1545,  740,  770
4850, 1514, 1355,  835,  804
4851, 1467, 1545,  770, 1514
4852, 1406,  543,  546,  545
4853, 1467, 1355,  804,  807
4854, 1344,  856,  871,  859
4855,  770, 1514,  804, 1467
4856,  579, 1574,  586, 1553
4857, 1510, 1480,  650,  649
4858,  159,  160,  205, 1542
4859, 1198, 1488, 1210, 1201
4860, 1495,  638, 1580,  596
4861, 1494,  602, 1581,  619
4862, 1542,  547,  160,  161
4863, 1492, 1491, 1489, 1495
4864, 1214,  735,  734,  175
4865, 1538, 1581,  602,  560
4866,  759, 1558,   43, 1361
4867, 1502,   45, 1361,  754
4868, 1380,  156,  157,  546
4869, 1502, 1361, 1478,  754
4870,   43, 1558,  759,  752
4871,  158,  547,  713, 1413
4872, 1361,  792, 1309,  789
4873, 1380,  157,  548,  546
4874, 1519, 1578,  808,  831
4875, 1573,  555, 1500,  599
4876, 1372, 1474, 1394, 1473
4877, 1485, 1453,  319, 1531
4878, 1376,  308,  306,  309
4879, 1485,  319, 1453, 1295
4880, 1395, 1453, 1485, 1531
4881,  515, 1540,  518,  516
4882, 1413,  158,  547,  548
4883, 1295, 1338, 1296, 1453
4884, 1542,  160,  547,  159
4885, 1414,  713, 1542,  547
4886, 1453, 1485, 1295, 1338
4887, 1401, 1402, 1562, 1418
4888, 1365,  708,  718,  717
4889, 1215, 1175, 1337, 1335
4890,  536, 1389,  534, 1289
4891, 1308, 1261, 1526, 1449
4892, 1308, 1527, 1262, 1476
4893, 1399,  698,  693,  689
4894,  833, 1568, 1360, 1543
4895, 1543,  833,  806, 1360
4896, 1515,  764,  204, 1435
4897, 1380,  548,  157,   15
4898, 1435, 1433,  771,  202
4899, 1447,  714,  203,  204
4900, 1332,  535, 1175, 1230
4901,  204, 1447, 1515, 1435
4902, 1435, 1447, 1517, 1446
4903, 1207, 1209, 1511, 1410
4904, 1357, 1447, 1515, 1542
4905, 1542, 1515, 1568, 1548
4906, 1360,  833,  806,  776
4907, 1515, 1568,  728,  800
4908, 1452,   31,   24,    3
4909, 1214, 1544,  794,  735
4910, 1382, 1554,  636,  607
4911,  515,  332,  513, 1248
4912,  704,  714, 1366, 1413
4913, 1452,   31,    3,  178
4914, 1380,  194,   15,  157
4915, 1451,  844,  795,  827
4916,  551, 1530, 1560,  594
4917, 1214, 1248,   33,   34
4918, 1214,  175, 1572,  735
4919,  729, 1214,  176,  177
4920, 1379,  193,  192,  706
4921,  176,  175,  517, 1214
4922, 1438, 1500, 1457, 1212
4923, 1422,  660,  653,  655
4924, 1279, 1300, 1444,  888
4925, 1234, 1302, 1254, 1441
4926, 1438, 1439,  599,  654
4927, 1356,  862, 1543, 1342
4928, 1433, 1417, 1516, 1416
4929, 1253,  195,  712,  186
4930, 1469,  574,  179,  589
4931, 1342, 1516, 1183, 1415
4932, 1386,  662,  669,  629
4933,  575,  584, 1576, 1577
4934,  183, 1477, 1445,  590
4935, 1209, 1408, 1243, 1511
4936, 1496,  321, 1497,  323
4937, 1496, 1504,  325, 1497
4938, 1496, 1465,  325,  327
4939, 1311,  550,  181,  549
4940, 1338, 1296, 1453, 1431
4941, 1453,  321, 1296,  319
4942, 1399,  698,  689,  684
4943, 1492, 1580, 1532, 1499
4944, 1253,  185,  186,  556
4945, 1492, 1496, 1453, 1497
4946, 1253,  891,  712,  195
4947, 1406, 1207,  546,  544
4948, 1406,  541,  544,  543
4949, 1454,  552,  594,  598
4950, 1497, 1492, 1494, 1552
4951, 1492, 1532, 1497, 1453
4952, 1563,  815, 1468, 1362
4953, 1212,  598,  553,  552
4954,  182,  549, 1311,  181
4955, 1289, 1385, 1192,  536
4956, 1362, 1354, 1563, 1305
4957, 1407,  628,  624,  645
4958, 1468, 1502, 1508, 1564
4959,  192, 1379,  706, 1560
4960,  754, 1508,  816, 1478
4961, 1212,  553,  598,  595
4962, 1468, 1502, 1448, 1478
4963, 1362, 1563,  815,  796
4964, 1582,  157,  573,  194
4965,  880, 1468,  211,  212
4966, 1400, 1354,  884,  886
4967, 1473,  666,  685,  662
4968, 1400,  797, 1305, 1451
4969,  210,  884, 1400, 1563
4970,  523,  172,  525, 1521
4971, 1546,  736, 1520,  773
4972, 1313,  695,  660,  677
4973, 1532,  618,  651,  652
4974, 1520,  823, 1547,  773
4975, 1296,  321,  320,  318
4976, 1520, 1578,  823,  808
4977, 1579, 1518, 1512, 1522
4978, 1487,  875,  871,  855
4979, 1430, 1247, 1429, 1521
4980, 1532,  617, 1574,  651
4981, 1492, 1491, 1580, 1499
4982,   65,  179,  879, 1469
4983, 1394, 1499, 1532, 1533
4984, 1580,  638, 1552,  652
4985, 1580, 1499,  603,  637
4986, 1401,  724,  206,  207
4987, 1571,   71,  577,  578
4988, 1496, 1497, 1494, 1504
4989, 1310,  678,  623,  677
4990,  667, 1480,  651, 1532
4991, 1532,  665, 1580,  652
4992, 1516,  832, 1543,  799
4993,  637, 1499,  665, 1580
4994, 1526,  848,  845,  826
4995, 1147, 1355, 1467, 1360
4996, 1358, 1360,  775,  776
4997, 1360, 1355,  807,  840
4998, 1469,  179,  574,   65
4999, 1568,  833, 1517, 1543
5000, 1469,  589,  179,  180
5001, 1508,  726,  211,  763
5002, 1179,  718, 1417,  717
5003, 1356,  840, 1360, 1543
5004, 1357, 1360, 1568, 1543
5005, 1379,  592,  192,  193
5006, 1379, 1366, 1380,  705
5007, 1378, 1560,  707,  706
5008, 1379,  706, 1366,  705
5009, 1577,  626,  584,  574
5010,  196,   18,  892,  721
5011, 1346, 1514,  841,  812
5012, 1577,  615,  584,  626
5013, 1477,  887,  889,  183
5014, 1311,  550,  644,  589
5015, 1230, 1346, 1333, 1514
5016, 1537,  817,  784,  755
5017, 1346,  801, 1458, 1459
5018, 1424,  657,  654,  659
5019, 1311,  550,  589,  180
5020, 1345, 1470,  868,  873
5021, 1245, 1399, 1251, 1396
5022,  842, 1346,  801, 1458
5023, 1363,  836,  809,  850
5024, 1512, 1335, 1273, 1522
5025, 1201,  876,  877,  870
5026, 1258,  720,  711,  721
5027, 1227, 1376,  309, 1280
5028, 1439,  654,  627,  625
5029, 1294, 1318, 1323, 1291
5030, 1292, 1296,  318,  316
5031, 1438,  599,  595,  642
5032, 1296, 1295,  316, 1292
5033,  322, 1465,  320, 1325
5034, 1454,  594,  640,  598
5035,  873, 1529,  877,  870
5036, 1294, 1327, 1296, 1295
5037, 1327, 1429, 1431, 1334
5038,  834,  835, 1514, 1505
5039, 1454,  641,  598,  640
5040, 1285,  883, 1284,  885
5041, 1296, 1294, 1325, 1327
5042, 1511,  628, 1410,  658
5043, 1246, 1396, 1541, 1371
5044, 1408,  682, 1511,  664
5045, 1511,  658,  682,  640
5046, 1410, 1408, 1511,  664
5047, 1484,  608,  631,  630
5048, 1211, 1252, 1250, 1251
5049, 1209, 1484, 1410, 1409
5050, 1207, 1378, 1243, 1367
5051, 1491, 1569, 1580, 1499
5052,   68,   69,  585, 1423
5053, 1492, 1496, 1431, 1453
5054, 1570,  620,  585,  616
5055, 1491, 1539,  526,  524
5056, 1492, 1494, 1580, 1495
5057, 1450, 1361,  308,  310
5058,  306,   45, 1361, 1502
5059, 1342,  832,  856,  862
5060, 1463,  620,  576,  585
5061, 1570,  616,  585,  575
5062,  310, 1361,   44,   43
5063, 1498, 1428, 1324, 1319
5064, 1498, 1428, 1319,  788
5065,  314,  316, 1292, 1427
5066, 1304, 1279, 1223, 1354
5067, 1478, 1508,  816,  815
5068, 1478,  789, 1361, 1309
5069, 1502,  306,   45,   46
5070, 1566, 1539,  146,  526
5071, 1502,  302,  304,   47
5072, 1566,  147,  528,  526
5073, 1339, 1468,  880,  302
5074,  532,  149, 1255, 1567
5075, 1222, 1202, 1262, 1263
5076,  532, 1389,  534,  150
5077, 1389,  534,  151,  536
5078, 1203, 1513, 1451,  827
5079,  152, 1389,  151,  536
5080, 1174, 1258,  890,  892
5081, 1474,  662,  629,  632
5082,  814, 1513,  844, 1525
5083, 1391, 1255, 1390, 1334
5084, 1255, 1334,  530,  532
5085, 1370, 1374,  690,  691
5086, 1255, 1334,  528,  530
5087, 1203, 1513,  827,  850
5088, 1305,  853, 1203,  828
5089, 1499,  612,  603,  633
5090, 1303, 1476, 1308, 1262
5091, 1513, 1418,  829,  850
5092, 1388,  151,  567,  568
5093, 1410, 1407, 1409,  609
5094, 1571,  614,  578,  577
5095, 1530, 1454, 1511, 1378
5096, 1529,  873,  858,  870
5097, 1401,  814,  829,  762
5098, 1571,   70,  576,  577
5099, 1530, 1407, 1511,  628
5100, 1381,   40,  758,   41
5101, 1560, 1212, 1457, 1561
5102, 1454, 1457, 1436, 1455
5103, 1522, 1335,  527, 1429
5104, 1456,  682, 1251,  684
5105, 1243, 1250, 1456, 1251
5106, 1454,  594,  552, 1560
5107, 1454, 1436,  598,  641
5108,  641, 1454, 1456,  640
5109, 1536,  820, 1466, 1326
5110,  820,  793, 1536,  821
5111, 1490,  524,  523,  521
5112,  522, 1493, 1538,  520
5113, 1510,  649,  614,  648
5114, 1326, 1405,  819,  846
5115, 1553,   74,   73,  579
5116, 1248,  517,  515,  328
5117, 1413, 1366,  548,  546
5118, 1580,  637,  596,  638
5119, 1322, 1326, 1466,  846
5120,  820,  846,  864, 1466
5121, 1337, 1471, 1323, 1512
5122, 1294, 1325, 1326, 1292
5123, 1494,  622, 1552,  638
5124, 1538, 1495,  602, 1581
5125, 1538,  520,  144,  522
5126,  144,  522,  145, 1538
5127, 1489,  522, 1539,  524
5128, 1539,  562,  146,  145
5129,   69, 1423,  309,  311
5130, 1553,   73,  586,  579
5131, 1501, 1423, 1576, 1577
5132, 1550,  327,  325,   77
5133, 1372, 1473, 1472, 1475
5134,   79,  331,   80, 1235
5135, 1265, 1224, 1283, 1282
5136, 1393,  618,  579,  617
5137, 1557,  790,  787,  758
5138, 1280, 1376,  311, 1486
5139, 1292, 1295,  316,  314
5140, 1411, 1463, 1462, 1442
5141, 1144, 1369, 1240, 1278
5142,  780, 1519, 1512, 1518
5143, 1510, 1553, 1509,  578
5144, 1553,  321, 1531,  319
5145, 1401,  724,  814,  762
5146, 1532,  651,  667,  665
5147,  838, 1458,  839, 1471
5148, 1430, 1578, 1466, 1325
5149,  617, 1574,  586,  579
5150, 1322, 1471,  838,  803
5151, 1337, 1512, 1273, 1471
5152, 1519, 1578, 1520,  808
5153, 1392,  580,   75,  587
5154, 1557, 1319, 1326, 1292
5155, 1580,  637,  603,  596
5156, 1322, 1519, 1323, 1512
5157, 1480,  666,  702,  674
5158, 1465,  323,  320,  321
5159, 1517,  813,  800,  764
5160, 1575,  583,  582,  600
5161, 1519, 1520, 1518,  808
5162,  864, 1519,  837,  831
5163, 1522, 1323, 1327, 1430
5164, 1425, 1232, 1419, 1524
5165, 1398, 1524, 1397, 1528
5166, 1296, 1325,  318,  320
5167, 1172, 1173, 1179, 1365
5168, 1199,  512,  514,  335
5169, 1210,  877, 1315, 1201
5170, 1238, 1284,  885,  887
5171, 1354, 1279, 1444,  886
5172,   76,  581, 1392, 1550
5173, 1262, 1527, 1315, 1476
5174,  647,  646, 1462, 1412
5175, 1463,  585, 1570,  620
5176, 1482,  676, 1421,  653
5177, 1213, 1143, 1155, 1194
5178, 1570,  653, 1421,  616
5179, 1392,  323,  321,   75
5180,  521, 1490,  519, 1247
5181, 1570, 1577, 1423, 1422
5182, 1570, 1423, 1577, 1576
5183, 1229,  739, 1545, 1274
5184, 1545, 1333,  779,  812
5185, 1495,  596,  602,  638
5186, 1569, 1580,  603,  596
5187, 1538, 1236,  518, 1493
5188,   78, 1575,   77, 1235
5189, 1552,  580,  587,  622
5190,  619, 1494,  580,  581
5191, 1514, 1545,  770,  812
5192, 1150, 1148, 1467, 1152
5193, 1467, 1514,  804, 1355
5194, 1553,  319,   73,   74
5195, 1392,  580,  581,   76
5196, 1549, 1467, 1358, 1148
5197, 1545, 1333,  739,  779
5198,  583,  600, 1575,  558
5199, 1333, 1514, 1545, 1230
5200, 1550,  581,   77,   76
5201, 1581,  602,  601,  703
5202, 1493, 1538,  520,  518
5203, 1367, 1378,  708,  707
5204, 1229,  539,  537, 1148
5205, 1529,  858, 1347, 1506
5206, 1529, 1315,  877, 1201
5207, 1483, 1412, 1421,  672
5208, 1411, 1442,  313, 1463
5209, 1236,  558,  559,  142
5210, 1580,  652,  665,  637
5211, 1575, 1504, 1581, 1551
5212, 1288,  333,  332,  330
5213, 1501, 1576,   67,  584
5214,  202, 1433,  716, 1435
5215, 1570, 1576, 1577,  575
5216,  305, 1576,   67, 1501
5217,   68,   69, 1423,  309
5218, 1199,  514,  512,  140
5219,   67,  575,  584, 1576
5220,  305, 1423,  307, 1576
5221, 1570,  616, 1421,  620
5222, 1567, 1388, 1479, 1390
5223, 1355,  807,  840,  835
5224,  872, 1328, 1201,  871
5225, 1390, 1389,  534,  532
5226,  146,  147,  563, 1565
5227, 1356, 1317, 1355,  840
5228,  530,  532,  149, 1255
5229, 1174, 1300,  888,  890
5230, 1201, 1196, 1369, 1315
5231, 1253,  891,  185,  184
5232, 1561,  710,  189,  188
5233,   17,  195,  185,  186
5234, 1328, 1196, 1369, 1201
5235, 1341, 1345, 1347, 1470
5236,  871, 1328, 1201, 1197
5237, 1340, 1278, 1506, 1152
5238, 1201,  871,  876,  872
5239, 1344, 1328, 1317,  859
5240, 1573,  186,  187,  556
5241, 1445,  588,  590,  656
5242, 1328, 1505,  859,  857
5243, 1529, 1505, 1328,  857
5244, 1496, 1492, 1493, 1494
5245, 1275, 1474, 1533, 1255
5246, 1532, 1480, 1533,  667
5247,  515, 1540, 1288,  330
5248, 1533, 1499,  667,  634
5249, 1473,  666, 1533, 1480
5250, 1507,  154,  571,  155
5251, 1473,  632, 1533,  666
5252,  664, 1484, 1410, 1408
5253, 1560, 1454, 1212,  552
5254, 1382, 1554, 1541,  636
5255, 1377, 1409,  570,  608
5256, 1507, 1377,  570, 1555
5257, 1192, 1377,  540, 1385
5258, 1484, 1409, 1377,  608
5259, 1543,  843,  813,  799
5260,  570, 1377, 1554, 1555
5261, 1501,  303,   66,  305
5262, 1206, 1406, 1272, 1192
5263,  155,  156,  572, 1380
5264, 1507, 1377,  540,  542
5265, 1570,  615,  616,  575
5266,  519,  175,  174, 1572
5267, 1209, 1377, 1409, 1208
5268, 1535, 1537, 1523,  750
5269, 1523, 1430, 1325, 1578
5270, 1436,  642,  595,  641
5271, 1436,  598,  641,  595
5272, 1519, 1578,  831, 1466
5273, 1547, 1578, 1523,  823
5274,  821,  822, 1536, 1466
5275, 1408,  631,  663,  664
5276, 1582,  610,  194,  573
5277, 1582,  624,  573,  572
5278, 1543,  806,  843,  840
5279, 1207, 1511, 1530, 1407
5280, 1430, 1464, 1325, 1465
5281, 1388,  606,  568,  567
5282,  735, 1546, 1572,  782
5283, 1511,  664,  682,  658
5284, 1537, 1523,  784, 1547
5285, 1523,  823, 1578,  785
5286, 1578, 1466,  822,  831
5287, 1510, 1574, 1480, 1531
5288, 1571, 1510, 1509,  578
5289, 1582,  572,  573,  156
5290,  705, 1379,  193,  194
5291, 1393, 1574, 1553, 1531
5292, 1410,  609,  630,  645
5293, 1582,  193,  592, 1379
5294, 1361,  789,  753,  792
5295, 1192, 1377,  542,  540
5296, 1410,  645,  630,  658
5297, 1384,  597,  606,  639
5298, 1553, 1509,  578,   72
5299, 1553, 1531,  321, 1497
5300, 1553, 1509,   72,  317
5301, 1553,  317, 1531, 1509
5302, 1464, 1523, 1430, 1325
5303, 1439, 1440,  590,  627
5304, 1500, 1561, 1254, 1457
5305, 1439, 1253, 1441, 1254
5306, 1233, 1239, 1313, 1419
5307, 1379,  193,  706,  705
5308, 1302, 1258,  891,  889
5309, 1212,  189,  553,  554
5310, 1530,  592,  551,  192
5311, 1231, 1437, 1425, 1424
5312, 1254,  712,  187,  186
5313, 1302, 1254,  710, 1457
5314,  863, 1307, 1305,  853
5315, 1400, 1563,  725,  210
5316,  583, 1575,   78,   79
5317, 1468, 1226,  882,  884
5318, 1303, 1304, 1362, 1305
5319, 1305,  863,  851, 1303
5320, 1204, 1353, 1354, 1451
5321, 1164, 1238, 1298, 1444
5322, 1210,  876, 1201, 1488
5323, 1303, 1307, 1306, 1476
5324, 1333, 1331, 1274,  766
5325, 1507, 1380, 1208,  544
5326, 1331,  766, 1459,  769
5327, 1410, 1407,  609,  645
5328,  190, 1212,  553,  552
5329, 1560,  191,  552,  190
5330, 1274,  766,  727, 1333
5331, 1380,  704, 1366,  548
5332, 1316, 1562, 1416,  746
5333, 1331, 1471,  802, 1459
5334,  781, 1471,  802, 1331
5335, 1149,  543, 1359,  541
5336, 1573,  555,  556,  187
5337,  738, 1274,  167,  168
5338, 1532, 1453, 1531, 1497
5339, 1532,  667, 1533, 1499
5340, 1393, 1532, 1574, 1531
5341,  189, 1212,  553,  190
5342, 1346,  841,  861,  842
5343, 1406,  543,  544,  546
5344, 1553, 1574,  586,  578
5345, 1277,  540,  542,  539
5346, 1532, 1580,  665, 1499
5347, 1525, 1513,  844, 1451
5348, 1393,  617, 1532,  618
5349, 1392, 1393, 1552,  587
5350, 1500,  188,  554,  555
5351, 1384, 1555, 1385, 1389
5352, 1392,  587, 1552,  580
5353, 1456,  684,  671,  682
5354, 1453, 1296, 1465, 1431
5355, 1395, 1531, 1510, 1480
5356, 1394, 1533, 1491, 1499
5357, 1485, 1453, 1395, 1338
5358,  330, 1540, 1288,  331
5359, 1485, 1531,  319,  317
5360, 1199,  335,  333,   81
5361, 1442, 1395, 1485, 1509
5362, 1509, 1395, 1485, 1531
5363, 1485, 1531,  317, 1509
5364, 1553,  319, 1531,  317
5365,  557, 1236,  141,  558
5366, 1235,  329,  331,  518
5367,  514, 1235,  333,  516
5368,  558,  600, 1575,  559
5369, 1530,  594, 1511, 1454
5370, 1581,  601,  600,  703
5371, 1490, 1429, 1431, 1465
5372, 1511, 1410,  628, 1407
5373, 1367, 1187, 1368, 1365
5374, 1530,  628, 1511,  594
5375, 1410, 1409,  630,  609
5376, 1538,  559,  560,  143
5377, 1581,  601,  560,  559
5378, 1491, 1431,  524,  526
5379, 1569,  603, 1580, 1499
5380, 1538,  561,  560,  602
5381, 1539,  561,  562,  145
5382, 1379, 1582, 1380, 1407
5383, 1538,  561,  144,  560
5384, 1407,  592, 1582,  624
5385,  596, 1569, 1539,  562
5386, 1530, 1379, 1407,  592
5387, 1495,  596,  561,  602
5388, 1489, 1491, 1539, 1495
5389, 1559,  791,  792,  759
5390,  686, 1541, 1396, 1371
5391, 1569,  563,  146,  562
5392, 1472, 1352, 1461, 1395
5393, 1491, 1580, 1495, 1492
5394, 1394, 1533, 1532, 1480
5395, 1491, 1565, 1533, 1255
5396,  526, 1566,  147,  146
5397,  147, 1565, 1275,  564
5398, 1275,  611,  565,  564
5399, 1567, 1390, 1255,  532
5400, 1386,  604,  605,  629
5401, 1565, 1533,  611,  612
5402, 1275,  564,  565,  148
5403, 1400,  888,  886,  208
5404, 1533,  667, 1480,  666
5405, 1567,  149, 1275, 1479
5406, 1479,  566,  565,  605
5407, 1385, 1382, 1383, 1190
5408,  566,  149,  150, 1479
5409, 1479,  604,  566,  605
5410, 1314,  643,  656,  679
5411, 1555, 1385,  538,  540
5412, 1532, 1499,  665,  667
5413, 1392,  321,   74,   75
5414, 1327, 1429, 1296, 1431
5415, 1396,  661,  683,  663
5416, 1554,  597,  569,  568
5417, 1214,  794,  749,  734
5418, 1389,  152,  538,  536
5419, 1555,  569,  152,  568
5420, 1212,  554, 1561,  189
5421,  709, 1561,  189, 1560
5422, 1439, 1441,  590, 1440
5423, 1500, 1561, 1212,  554
5424, 1554,  570,  569,  607
5425, 1560, 1379,  706, 1378
5426, 1380, 1208,  544, 1207
5427, 1409,  609,  571,  608
5428, 1380,  156,  572, 1582
5429, 1560, 1212,  190,  552
5430, 1451,  797,  795,  723
5431, 1356, 1543, 1183, 1342
5432, 1490, 1540, 1493,  520
5433,  711, 1254,  187,  188
5434, 1409,  609,  572,  571
5435, 1409,  572,  155,  571
5436, 1469, 1501,  303,   65
5437, 1312,  574,  589,  626
5438,  711,  188,  710, 1254
5439, 1561, 1457,  709,  710
5440,  686,  696, 1371, 1396
5441, 1406,  544,  542, 1207
5442, 1251,  684,  683, 1399
5443, 1386,  635,  604,  629
5444,  663,  684,  683, 1251
5445,  661,  686, 1541, 1396
5446, 1445,  182,  588,  549
5447, 1571,  613,  577,  576
5448, 1382, 1541, 1396,  661
5449, 1570,   68,  575,  585
5450, 1382, 1246, 1396, 1541
5451,  815, 1508, 1468, 1478
5452,  845,  825,  854, 1306
5453, 1445,  588,  656,  643
5454, 1427, 1428,  751,  788
5455, 1524, 1252,  680, 1425
5456, 1229,  740,  165,  164
5457, 1445,  549,  588,  643
5458, 1256, 1498, 1526, 1261
5459, 1570,  653,  616,  615
5460, 1438,  595, 1500, 1212
5461, 1508,  763,  852,  783
5462, 1437,  701, 1425, 1424
5463, 1506, 1505,  857,  834
5464, 1234, 1157, 1250, 1455
5465, 1455, 1378, 1454, 1457
5466, 1314,  677,  643,  679
5467, 1579,  737, 1331,  781
5468, 1456, 1251, 1250, 1252
5469, 1437,  689, 1456, 1252
5470, 1234, 1302, 1237, 1158
5471, 1441,  184,  591,  590
5472, 1547, 1247, 1430, 1521
5473, 1518,  731,  172,  171
5474, 1430, 1578, 1519, 1466
5475, 1331,  781,  737,  769
5476, 1500,  599,  555,  554
5477, 1512,  781, 1471,  803
5478, 1573,  591,  556,  625
5479, 1436,  670,  642,  641
5480, 1310,  678,  644,  623
5481, 1512,  780,  768,  805
5482, 1579, 1471, 1512,  781
5483, 1579,  733,  170,  169
5484, 1425,  700,  701,  680
5485,  185,  556, 1253,  591
5486, 1518,  732,  171,  170
5487, 1288,  333,  331,  516
5488, 1199,  593,  139,   81
5489, 1199,   81,  333,   80
5490, 1199,  593,   80,  557
5491, 1335, 1323, 1327, 1522
5492, 1404, 1335,  531,  533
5493, 1335, 1334, 1404,  531
5494, 1581,  601,  559,  600
5495, 1331,  168,  737, 1273
5496,  526,  524,  523, 1431
5497,  327, 1540,  518, 1493
5498, 1334, 1429, 1431,  527
5499, 1273, 1335,  531,  529
5500, 1455, 1367, 1378, 1457
5501, 1361,  308,   44,   45
5502, 1511, 1454, 1243, 1378
5503, 1484,  630, 1409,  608
5504,  316, 1296,  318,  319
5505, 1521, 1247,  519, 1546
5506, 1535,  750,  756,   37
5507, 1251, 1382, 1396,  663
5508, 1192, 1185, 1206, 1190
5509, 1394, 1473, 1533, 1480
5510, 1565,  612,  564,  563
5511,  141, 1199,  514, 1236
5512, 1248, 1214,  515,  517
5513, 1236, 1235, 1297, 1199
5514, 1199,  593,  140,  139
5515, 1538,  561, 1495, 1539
5516, 1392, 1551,  581, 1494
5517, 1569,  562,  603,  563
5518, 1566, 1491,  528, 1255
5519, 1553,  586,   72,  578
5520, 1569, 1495, 1580,  596
5521, 1532, 1574, 1531, 1480
5522, 1393, 1574, 1532,  617
5523, 1472, 1395, 1510, 1480
5524, 1510, 1574, 1531, 1553
5525, 1453, 1296,  321, 1465
5526, 1496, 1431, 1453, 1465
5527, 1236,  558, 1297, 1575
5528, 1581,  559, 1236, 1575
5529, 1248,  328,   35,  326
5530, 1574,  617,  586,  621
5531, 1575,  582, 1550, 1551
5532, 1575,  559, 1236,  558
5533, 1483,  681, 1482, 1426
5534, 1466, 1322, 1519, 1323
5535, 1486,  313,  315,  312
5536, 1235,   80,  333,  331
5537, 1499,  667,  633,  665
5538, 1199, 1236,  141,  557
5539, 1571,   70,  577,   71
5540,  558, 1297,  557, 1236
5541, 1575, 1581,  703, 1551
5542, 1474,  605,  611,  632
5543, 1565,  147, 1255, 1566
5544, 1275,  565,  611,  605
5545, 1199, 1235,  333,  514
5546, 1575, 1297,   79,  583
5547,   79, 1575,   78, 1235
5548, 1555, 1389,  152,  538
5549, 1554, 1555, 1377, 1385
5550, 1388,  604,  567,  566
5551, 1389,  534, 1289, 1390
5552, 1533,  634,  611,  612
5553, 1560, 1457, 1378,  708
5554, 1507,  570,  154,  153
5555, 1555, 1389,  538, 1385
5556, 1247, 1464, 1465,  324
5557, 1507, 1409, 1208, 1380
5558, 1244, 1382, 1396, 1251
5559, 1400,  723, 1451, 1525
5560, 1410, 1409, 1484,  630
5561, 1507, 1208, 1377,  542
5562, 1576,   67,  575,   68
5563, 1499,  634,  612,  633
5564, 1409, 1380,  572, 1407
5565, 1410,  628, 1407,  645
5566, 1371,  686,  668,  688
5567, 1389, 1555,  152,  568
5568, 1377,  608,  570,  607
5569, 1382, 1554, 1377, 1385
5570, 1329, 1412, 1483, 1330
5571, 1495, 1569, 1539,  596
5572, 1409,  608,  571,  570
5573, 1384,  568,  606,  597
5574, 1538,  559, 1581,  560
5575, 1554,  597,  607,  569
5576, 1458,  839,  842,  860
5577, 1581,  703, 1551,  619
5578, 1575,  703, 1581,  600
5579,  568, 1389, 1388,  151
5580, 1352, 1412, 1373, 1374
5581, 1284, 1441,  889, 1237
5582, 1409,  609,  608,  630
5583,  607, 1377, 1554,  570
5584, 1419, 1232, 1364, 1528
5585, 1518, 1520, 1546,  731
5586, 1484,  608,  607,  631
5587, 1518,  780,  767,  731
5588,  705, 1380,  704, 1366
5589, 1312, 1422, 1501, 1577
5590, 1261, 1450, 1498, 1449
5591, 1413,  545,  548,  547
5592, 1310, 1312,  644,  678
5593,  626, 1577,  655, 1312
5594, 1537,  326,   35,   36
5595, 1214, 1248, 1544, 1572
5596, 1407,  609,  645,  624
5597,  624, 1407,  609,  572
5598, 1537, 1248, 1544,  761
5599,   33, 1452,  332, 1248
5600, 1582,  624,  592,  610
5601, 1248,  330,   33,   34
5602, 1582,  193,  194,  610
5603, 1574, 1510,  578, 1553
5604, 1214, 1544, 1248,  761
5605,  889, 1284,  887, 1477
5606,  584, 1501,   66,   67
5607, 1478,  830,  816,  789
5608, 1379, 1380,  194,  705
5609,  194, 1379,  193, 1582
5610, 1582, 1380,  194, 1379
5611, 1379, 1582, 1407,  592
5612, 1525, 1401,  724,  814
5613, 1582,  194, 1380,  157
5614, 1565,  563,  603,  612
5615, 1565,  612,  611,  564
5616,  572, 1407,  609, 1409
5617, 1533,  611,  634,  632
5618, 1582, 1380,  156,  157
5619, 1494,  638,  619,  622
5620,  324, 1540,  327, 1465
5621, 1322,  846,  864,  837
5622, 1380,  572, 1407, 1582
5623, 1464,  324,   37,  322
5624, 1575,  583,   78,  582
5625, 1465,  325,  324,  322
5626,  525,  526,  523, 1431
5627,  304, 1468,  306, 1226
5628, 1392, 1497, 1553,  321
5629, 1247, 1490, 1465, 1429
5630, 1491, 1255, 1334,  528
5631, 1392, 1393, 1497, 1552
5632, 1494, 1581, 1551,  619
5633, 1296, 1431, 1429, 1465
5634, 1314,  679, 1424,  699
5635, 1432,  701, 1425,  700
5636, 1286, 1314, 1239, 1313
5637, 1297,   79,  583,  557
5638, 1234, 1440, 1233, 1284
5639, 1424, 1440,  657,  679
5640, 1235,   77,  327, 1550
5641,  694, 1426, 1432,  681
5642, 1494, 1495,  602,  638
5643, 1398, 1524, 1399, 1397
5644, 1432, 1524,  693,  700
5645, 1577,  584,  615,  575
5646, 1577,  655,  615,  626
5647, 1528, 1481, 1420,  694
5648,  635, 1384, 1387, 1386
5649, 1399,  696,  698,  683
5650, 1479, 1474, 1386,  605
5651, 1567, 1479, 1388,  150
5652, 1382,  631,  636,  663
5653, 1396,  686,  683,  661
5654, 1388,  604, 1386,  635
5655, 1554,  636,  607,  597
5656, 1387, 1371, 1541,  668
5657, 1390, 1255,  532, 1334
5658, 1404,  533,  534,  536
5659, 1289, 1389, 1385,  536
5660, 1351, 1387, 1475, 1370
5661, 1461, 1510,  648,  649
5662, 1392, 1553, 1393,   74
5663, 1350, 1387, 1370, 1371
5664, 1574,  621,  650,  617
5665, 1520,  808,  823,  767
5666, 1390, 1388, 1386, 1383
5667, 1510,  621,  649,  650
5668, 1510,  614,  621,  578
5669, 1347,  861,  858,  873
5670, 1391, 1390, 1474, 1386
5671, 1532,  617,  651,  618
5672, 1475,  669, 1387, 1386
5673, 1431,  528, 1334,  527
5674, 1552,  652,  622,  618
5675,  790, 1556,  760, 1557
5676, 1474,  605,  632,  629
5677, 1431, 1492, 1491, 1490
5678, 1572, 1547, 1546, 1247
5679,   65, 1469,  879,  303
5680, 1569,  562,  596,  603
5681, 1490, 1492, 1489, 1493
5682, 1497, 1504,  325, 1392
5683, 1295, 1283,  315, 1486
5684, 1540,  326,  327,  329
5685,  305,  302, 1339,  303
5686, 1494, 1495,  638, 1580
5687, 1557, 1326,  819,  790
5688, 1490,  523, 1431, 1429
5689, 1494,  619,  580,  622
5690,  521, 1247, 1521,  523
5691, 1432, 1424, 1425,  701
5692, 1310,  660,  677, 1313
5693, 1310,  660, 1482, 1422
5694, 1573,  599,  625,  555
5695,  304, 1339,  307,  305
5696, 1438,  642,  654,  599
5697, 1367, 1378,  706, 1366
5698, 1410,  645,  658,  628
5699, 1329, 1483, 1482, 1426
5700, 1182, 1342, 1415, 1343
5701, 1530,  592,  628,  551
5702, 1407,  624,  628,  592
5703, 1337, 1321, 1471, 1459
5704, 1579, 1518,  732,  768
5705,  594, 1530, 1560, 1454
5706, 1388,  606,  567,  604
5707, 1579, 1331, 1471,  781
5708, 1224, 1486, 1293, 1434
5709, 1516, 1416,  777,  744
5710, 1439,  654,  625,  599
5711,  706, 1560,  707,  192
5712,  689,  693, 1252,  680
5713,  646,  676, 1421,  672
5714, 1433, 1516,  744, 1416
5715, 1435,  771,  813,  764
5716, 1541,  668,  686,  661
5717, 1399, 1251, 1396,  683
5718, 1417, 1446,  716, 1433
5719,  517,  518,  515, 1540
5720, 1516,  799, 1543,  813
5721, 1433,  201, 1316, 1416
5722, 1365,  709,  710,  719
5723, 1447, 1435,  203,  715
5724, 1517, 1446, 1543, 1516
5725, 1371,  697,  696,  686
5726, 1408,  664,  663,  684
5727, 1506,  834,  841, 1514
5728, 1566,  528, 1491,  526
5729, 1345, 1347,  873,  861
5730, 1491,  528, 1431,  526
5731,  633,  637, 1499,  665
5732, 1381,   40,   39,  760
5733, 1459,  839,  802,  801
5734, 1340, 1346, 1514, 1506
5735, 1346,  810, 1333,  812
5736, 1322,  846,  838,  865
5737,  793, 1556, 1534,  760
5738, 1150, 1152, 1146, 1148
5739,  530,  532, 1334,  529
5740, 1467, 1549,  741,  740
5741, 1152, 1146, 1148, 1230
5742, 1399, 1251,  684, 1252
5743, 1149,  541, 1359, 1148
5744, 1498,  818,  824,  788
5745, 1472, 1395, 1461, 1510
5746, 1386,  669,  635,  629
5747, 1387, 1541,  639,  668
5748, 1384, 1388, 1386,  635
5749, 1387, 1383, 1351, 1386
5750, 1462,  647,  613,  620
5751, 1421,  616,  646,  620
5752, 1387,  635, 1386,  669
5753, 1429, 1335, 1334, 1327
5754,  668,  688, 1387, 1371
5755, 1275, 1565, 1533,  611
5756,  146, 1565, 1569, 1566
5757, 1467, 1150, 1355, 1147
5758, 1288,  333,  516,  514
5759, 1533,  612, 1499,  634
5760, 1467, 1360, 1355,  807
5761, 1480,  702,  666,  667
5762, 1266, 1395, 1283, 1442
5763, 1373, 1370,  697, 1481
5764, 1358, 1467,  775, 1360
5765,  835, 1317,  840, 1355
5766, 1533,  666,  634,  667
5767, 1579,  733,  781,  768
5768, 1553,  319,  317,   73
5769, 1147, 1359, 1358, 1148
5770, 1154, 1317, 1356, 1183
5771, 1356, 1342, 1183, 1317
5772, 1360, 1543,  840,  806
5773, 1312,  644,  626,  589
5774, 1312,  655,  644,  678
5775, 1150, 1505, 1355, 1317
5776, 1312,  655,  626,  644
5777, 1541,  639,  661,  636
5778, 1541,  639,  668,  661
5779, 1538,  144,  561,  145
5780, 1384,  635,  639,  606
5781,  559,  600, 1575, 1581
5782, 1426,  681,  694,  692
5783, 1236, 1235, 1575, 1297
5784, 1575, 1581, 1493, 1236
5785, 1422,  655,  653,  615
5786, 1412,  647,  672,  673
5787, 1483,  692,  676,  681
5788, 1581, 1495, 1494, 1493
5789, 1493, 1236, 1581, 1538
5790, 1538,  560,  144,  143
5791, 1397,  696,  694,  693
5792, 1564,  852,   47,  783
5793, 1575, 1551, 1550, 1504
5794, 1439,  657, 1424, 1440
5795, 1439,  590, 1441,  591
5796, 1477, 1441, 1440,  590
5797, 1289,  532, 1390,  534
5798, 1234, 1237, 1302, 1441
5799, 1461,  647,  673,  648
5800, 1314, 1445, 1285, 1284
5801, 1253,  184, 1441,  889
5802, 1496, 1493, 1504, 1494
5803, 1431, 1429,  525,  527
5804, 1289, 1334, 1390,  532
5805, 1314, 1311,  643,  623
5806, 1432,  693, 1528,  694
5807, 1233, 1440, 1314, 1284
5808, 1424,  659, 1437,  701
5809, 1234, 1500, 1439, 1254
5810, 1169, 1173, 1237, 1300
5811, 1526,  848,  849,  868
5812, 1337, 1321, 1459, 1336
5813, 1253, 1441, 1254,  889
5814, 1157, 1457, 1301, 1455
5815, 1245, 1399, 1396, 1397
5816, 1558,   42,  752,   43
5817, 1207, 1208, 1410, 1407
5818, 1249, 1364, 1398, 1349
5819, 1212, 1560,  190,  189
5820, 1326,  793, 1536,  820
5821, 1279, 1353,  886, 1354
5822, 1560, 1379, 1530,  192
5823, 1509,  317,  315,   72
5824, 1499,  634,  633,  667
5825, 1484, 1377,  607,  608
5826, 1560, 1530, 1379, 1378
5827, 1456,  640,  671,  641
5828, 1410, 1409, 1407, 1208
5829, 1424,  657,  659,  701
5830, 1277,  539,  542,  541
5831, 1365, 1457, 1367, 1301
5832,  150, 1479, 1388,  566
5833, 1389, 1383, 1289, 1385
5834, 1437,  670,  659,  642
5835,  149, 1275, 1479,  565
5836, 1456,  671,  670,  641
5837, 1553,  321,  319,   74
5838, 1281, 1338, 1395, 1394
5839, 1535, 1536, 1578, 1325
5840, 1310, 1314,  623, 1311
5841,  699, 1424, 1314, 1313
5842, 1439,  625,  627,  591
5843, 1310, 1286, 1482, 1313
5844, 1329, 1286, 1268, 1239
5845, 1342,  777,  832, 1516
5846,   43, 1361,   44,  759
5847,  856, 1343, 1415, 1342
5848, 1496, 1504,  327,  325
5849, 1484,  631,  664,  630
5850, 1456,  682,  671,  640
5851, 1363,  836, 1415,  809
5852, 1415, 1416,  772,  777
5853, 1510,  621,  614,  649
5854, 1562, 1316, 1177,  199
5855, 1487, 1203,  850, 1513
5856, 1487, 1203,  869,  850
5857, 1487, 1197,  871, 1488
5858, 1370,  688,  690,  697
5859, 1294, 1293, 1295, 1292
5860, 1288,  333,  335,  332
5861, 1381, 1326, 1292, 1557
5862, 1326, 1405, 1319,  819
5863, 1458, 1336, 1346, 1459
5864, 1157, 1367, 1455, 1301
5865, 1277,  537,  540,  539
5866, 1526,  849, 1320, 1470
5867, 1234, 1441, 1254, 1439
5868, 1502,  304,  306,   46
5869, 1346,  812,  841,  810
5870, 1498, 1324, 1428, 1450
5871, 1294, 1292, 1296, 1325
5872, 1319,  819, 1405,  847
5873, 1472, 1510,  649, 1480
5874, 1473,  666,  662,  632
5875, 1475,  669,  662,  687
5876,  867, 1320, 1405,  847
5877, 1421,  653,  676,  646
5878,  191, 1560,  551,  192
5879, 1421,  646,  616,  653
5880,  678, 1422,  655,  660
5881, 1438, 1436, 1212, 1457
5882, 1482,  653,  660,  676
5883, 1571, 1461,  648,  613
5884, 1463,  313,   70, 1571
5885, 1348, 1374, 1373, 1370
5886, 1432,  694,  681,  700
5887,  683, 1251, 1396,  663
5888,  568, 1389,  151,  152
5889, 1156, 1268, 1164, 1165
5890, 1472, 1461, 1352, 1374
5891, 1373, 1420,  697,  692
5892, 1438,  654,  642,  659
5893, 1439,  627,  654,  657
5894, 1485, 1295, 1283,  315
5895,  858,  857, 1506, 1529
5896, 1283,  315, 1486,  313
5897, 1458, 1321, 1459, 1471
5898, 1334,  530,  529,  527
5899, 1460,  860,  867,  865
5900, 1345, 1470,  867,  868
5901, 1256, 1264, 1526, 1470
5902, 1325, 1326, 1292, 1381
5903, 1322, 1405, 1326,  846
5904, 1472,  685,  674,  675
5905, 1322, 1519, 1512,  837
5906, 1318, 1405, 1321, 1320
5907, 1322,  803, 1512, 1471
5908, 1444,  883,  884,  886
5909, 1456,  671,  689,  670
5910, 1456,  684,  689,  671
5911, 1458, 1322,  838,  865
5912, 1430, 1547, 1523, 1464
5913,  664, 1511, 1410,  658
5914, 1330, 1481, 1373, 1420
5915, 1437,  680,  670,  689
5916, 1207, 1511, 1407, 1410
5917,  532,  150,  149, 1567
5918,  518,  329,  331, 1540
5919, 1371, 1348, 1481, 1370
5920, 1399,  683,  698,  684
5921, 1520,  731,  767,  736
5922, 1524, 1398, 1399, 1252
5923, 1387,  668,  639,  635
5924, 1387,  669,  668,  635
5925, 1384, 1387, 1541,  639
5926, 1382,  631,  607,  636
5927, 1479,  605, 1275, 1474
5928, 1399,  693,  698,  696
5929, 1389, 1567,  532, 1390
5930, 1388, 1479, 1386,  604
5931, 1384,  597, 1554,  568
5932, 1296, 1325, 1292,  318
5933, 1474, 1386,  629,  662
5934, 1488,  876,  871,  875
5935, 1270, 1269, 1350, 1349
5936, 1384,  568, 1554, 1555
5937,  702,  667, 1480,  651
5938,  610, 1582,  193,  592
5939, 1485, 1295,  315,  317
5940, 1192,  536, 1176, 1289
5941, 1549,  741,  164,  163
5942, 1321,  865, 1460, 1405
5943, 1347, 1345, 1340,  861
5944, 1247, 1547, 1464, 1544
5945, 1346,  810,  842,  801
5946, 1412,  646,  672,  647
5947, 1459, 1336, 1346, 1332
5948,  810, 1333, 1459, 1346
5949, 1346,  810,  801, 1459
5950, 1496,  323, 1465,  321
5951, 1471, 1459,  839,  802
5952, 1471, 1337, 1459, 1331
5953, 1475,  691,  687,  685
5954, 1432,  700,  681,  695
5955, 1524,  693,  700,  680
5956, 1500,  554,  595,  599
5957, 1459,  810,  801,  766
5958, 1201,  876,  870,  872
5959,  182, 1477, 1445,  183
5960, 1210,  876,  874,  877
5961, 1331, 1333, 1459,  766
5962, 1392,   76, 1550,  325
5963,    2,  335,   23,  139
5964, 1186, 1215, 1241, 1276
5965, 1493, 1236, 1235, 1575
5966, 1482,  660,  695,  681
5967, 1344, 1343,  856, 1342
5968, 1313,  699,  695,  677
5969, 1550, 1504,  325,  327
5970, 1235,   79,  329,   78
5971, 1544,  784,  817,  782
5972, 1195, 1202, 1205, 1198
5973, 1561,  188,  189,  554
5974, 1407, 1582,  572,  624
5975, 1366,  706,  715,  705
5976,  582, 1550,  581,   77
5977, 1575, 1581, 1504, 1493
5978, 1465,  325,  322,  323
5979,  327, 1465,  325,  324
5980, 1544,  817,  761,  794
5981, 1254,  188, 1500, 1573
5982, 1413,  548,  704,  158
5983,  878, 1210,  877, 1315
5984,  866, 1476,  878, 1315
5985, 1306, 1362, 1309,  854
5986, 1575,  582,  703,  600
5987, 1392,  325,  323,   76
5988, 1219, 1224, 1434, 1227
5989, 1498,  824,  849,  848
5990, 1219, 1256, 1261, 1434
5991, 1257, 1341, 1264, 1443
5992, 1573,  625,  556,  555
5993, 1542,  547,  161,  545
5994, 1361,  753,   45,   44
5995, 1437, 1438,  659, 1424
5996, 1414,  545, 1413,  547
5997, 1548,  545,  162,  543
5998, 1293, 1450,  310, 1324
5999, 1548,  161,  162,  545
6000, 1311,  623,  644,  550
6001, 1498,  791, 1559, 1428
6002, 1365,  708,  709,  718
6003, 1293,  312, 1486,  314
6004, 1466,  821,  822,  831
6005, 1548,  742,  163,  162
6006, 1568,  833,  776,  800
6007, 1439,  657, 1440,  627
6008, 1439,  627,  590,  591
6009, 1285,  180,  883,  181
6010, 1310, 1314, 1313,  677
6011, 1560,  191,  707,  192
6012, 1560,  708,  707,  191
6013,  701,  659, 1437,  680
6014, 1424,  701,  679,  657
6015, 1336, 1175, 1230, 1332
6016, 1561,  710,  709,  189
6017, 1414,  714, 1366,  715
6018, 1413,  548, 1366,  704
6019, 1432,  700,  699,  701
6020, 1549, 1229,  740, 1467
6021, 1515, 1542, 1447,  205
6022, 1311,  623,  549,  643
6023, 1314,  679,  699,  677
6024,  183, 1441,  184,  889
6025,  660, 1310,  678, 1422
6026,  180,  589, 1311, 1285
6027, 1440,  656,  657,  679
6028, 1314,  623,  643,  677
6029, 1360,  775,  806,  807
6030, 1433,  201,  716,  717
6031, 1549, 1359,  541, 1148
6032, 1548, 1515, 1568,  728
6033, 1362,  796,  815,  851
6034, 1548, 1358,  742, 1568
6035,  828,  853, 1203,  827
6036, 1234, 1438, 1439, 1500
6037, 1540,  328,  326,  329
6038, 1357, 1447, 1446, 1517
6039, 1536,  793,  757,  786
6040, 1285,  885,  182,  181
6041,  188,  710, 1254, 1561
6042, 1526,  866,  848,  868
6043, 1365,  719,  718,  709
6044, 1173, 1157, 1158, 1302
6045, 1403,  888, 1174, 1353
6046, 1388, 1389, 1567,  150
6047, 1275, 1474,  605,  611
6048, 1507, 1377, 1409,  570
6049, 1479, 1567, 1390, 1255
6050, 1254,  712,  711,  187
6051,  891, 1254,  712, 1302
6052, 1384, 1555, 1389,  568
6053, 1388, 1479, 1390, 1386
6054, 1385, 1382, 1554, 1384
6055, 1389, 1385,  536,  538
6056,  151, 1389, 1388,  150
6057, 1546,  730,  174,  173
6058, 1253,  891,  184,  889
6059, 1214,  734,  176,  175
6060, 1440,  656,  627,  657
6061, 1306,  851,  854,  863
6062, 1364, 1528, 1481, 1420
6063, 1537, 1523, 1547, 1464
6064, 1400,  725, 1563,  797
6065, 1449,  792,  826,  825
6066, 1214, 1572, 1544,  735
6067, 1247,  517,  519, 1572
6068, 1514, 1505, 1506,  834
6069, 1435, 1446, 1517, 1516
6070, 1406,  541,  542,  544
6071, 1517, 1543,  833,  813
6072,  735, 1572, 1546,  174
6073, 1316, 1417, 1177,  718
6074, 1517, 1516, 1543,  813
6075, 1516, 1342, 1543,  832
6076, 1466,  846,  864, 1322
6077, 1357, 1183, 1543, 1446
6078, 1458,  842,  861,  860
6079, 1178, 1179, 1177, 1417
6080, 1229, 1274,  166,  739
6081, 1258,  719,  710,  720
6082,  714,  713, 1447, 1414
6083, 1542,  713,  159,  547
6084, 1452,   32,  729,   33
6085, 1230, 1514, 1467, 1152
6086,  715, 1435,  203,  202
6087, 1176, 1404,  533, 1175
6088, 1238, 1287,  883, 1284
6089, 1392,  580,   76,   75
6090, 1414,  714, 1413, 1366
6091,  879, 1339, 1375,  881
6092, 1310, 1482,  660, 1313
6093, 1447,  714,  715,  203
6094, 1357, 1517, 1446, 1543
6095, 1549,  163, 1358,  741
6096,  201, 1316, 1416,  200
6097, 1207, 1511, 1209, 1243
6098, 1543,  843,  862,  840
6099, 1382,  661,  663,  636
6100, 1285,  883,  180,  881
6101, 1579,  169,  737,  733
6102,   18,  892,  721, 1503
6103, 1427,  751,   42,   41
6104, 1430, 1522, 1429, 1327
6105, 1430, 1429, 1247, 1465
6106, 1415,  856,  811,  836
6107, 1247, 1521,  519,  521
6108, 1312, 1469, 1287,  589
6109, 1458, 1345, 1346, 1336
6110, 1381,   41,  316,   40
6111, 1293, 1282, 1295, 1486
6112, 1288,  516,  513,  514
6113, 1258,  196,  721,  712
6114, 1427, 1428,  788, 1319
6115, 1294, 1318, 1291, 1292
6116, 1286, 1329, 1313, 1239
6117, 1439,  654, 1424,  657
6118,  866, 1315,  873, 1527
6119, 1311,  181,  550,  180
6120, 1311,  550,  549,  623
6121, 1203, 1307,  874,  853
6122, 1203, 1307, 1210,  874
6123, 1315, 1529,  877,  873
6124, 1527, 1315,  873, 1347
6125, 1465,  323,  322,  320
6126, 1247,  326, 1464,  324
6127, 1288,  334,  332,  335
6128, 1227, 1434, 1376, 1280
6129, 1300, 1258,  889,  890
6130, 1369, 1529, 1315, 1347
6131, 1435,  204,  203,  764
6132, 1349, 1481, 1398, 1371
6133, 1529, 1347,  873, 1315
6134, 1270, 1281, 1348, 1351
6135, 1451,  827, 1513,  844
6136, 1353, 1525, 1401, 1403
6137, 1365, 1187, 1368, 1172
6138, 1315, 1202, 1210, 1198
6139, 1174, 1173, 1300, 1258
6140, 1302, 1258,  712,  891
6141, 1441, 1254,  889, 1302
6142, 1418, 1353, 1513, 1401
6143, 1433,  202,  716,  201
6144, 1400,  208, 1525, 1403
6145,  890, 1403,  888, 1174
6146, 1230, 1332, 1274, 1333
6147,  537,  535, 1230, 1176
6148, 1552,  618,  622,  587
6149, 1535,  785,  786,  756
6150, 1402,  720,  198,  719
6151, 1316,  199,  200,  718
6152, 1218, 1144, 1369, 1240
6153, 1339, 1468,  302,  304
6154, 1295,  316,  314,  317
6155, 1514,  804,  834,  812
6156, 1236, 1581, 1538,  559
6157, 1494, 1551, 1581, 1504
6158, 1297, 1199,  557, 1236
6159,  559, 1538, 1236,  143
6160, 1543,  832, 1342,  862
6161, 1503,  197,   18,  206
6162, 1467,  804,  770,  774
6163,  719, 1177,  718,  199
6164, 1199, 1235,   80,  333
6165, 1236,  141,  558,  142
6166, 1475, 1386,  662,  669
6167, 1390, 1389, 1383, 1289
6168, 1335,  527, 1334,  529
6169, 1532,  651,  665,  652
6170, 1321, 1320, 1405, 1460
6171, 1402,  198,  199,  719
6172, 1576,   68,  307,   67
6173, 1334,  529,  531, 1335
6174, 1383, 1388, 1386, 1384
6175, 1555,  570,  153,  569
6176, 1555,  152,  569,  153
6177, 1229, 1148,  537, 1230
6178,  720,  197,  721, 1402
6179,  812, 1514, 1545, 1333
6180, 1238, 1164, 1237, 1300
6181,  542, 1207, 1208, 1206
6182, 1377, 1385, 1555,  540
6183, 1207, 1209, 1410, 1208
6184, 1384, 1554,  639, 1541
6185, 1392,   75,   74,  587
6186, 1393,   74,  579,  587
6187, 1405,  819,  846,  847
6188, 1409, 1407, 1208, 1380
6189,  572, 1380, 1409,  155
6190,  544, 1207,  546, 1380
6191,  760, 1557,  758,  790
6192, 1487,  855,  850,  869
6193,  158,  704,   15,  548
6194, 1380,  704,   15,  194
6195, 1309,  830,  789,  825
6196, 1381,  758,   40,  760
6197, 1462,  646,  647,  620
6198, 1400,  209,  210,  725
6199, 1582,  573,  157,  156
6200, 1342,  856,  832,  811
6201, 1247, 1490, 1540, 1465
6202, 1306,  863,  854,  878
6203, 1526,  866,  845,  848
6204, 1525,  724,  207,  722
6205, 1432,  700,  695,  699
6206, 1449,  826,  845,  825
6207,  582,   77, 1575, 1550
6208, 1525,  207, 1403,  208
6209,  856, 1342, 1317, 1344
6210, 1147, 1148, 1467, 1150
6211, 1229,  537,  166,  535
6212, 1274,  535,  167,  533
6213, 1229,  165,  537,  539
6214, 1229,  164,  165,  539
6215, 1331, 1273, 1274,  168
6216,  168, 1331,  738, 1274
6217, 1545, 1230, 1514, 1467
6218, 1183, 1543, 1516, 1342
6219, 1415,  777, 1516, 1416
6220, 1149,  545, 1359,  543
6221, 1357, 1568, 1360, 1359
6222, 1515,  743,  160,  205
6223,  858, 1506,  834,  841
6224, 1356, 1317,  840,  862
6225, 1515,  743,  765,  160
6226,  776, 1568,  728,  742
6227, 1416,  746, 1562,  772
6228, 1515,  800,  765,  743
6229, 1459,  802,  769,  801
6230, 1512,  803,  837,  805
6231, 1183, 1446, 1516, 1543
6232, 1558,   43,  312,   42
6233,  766, 1331, 1274,  738
6234, 1273,  531,  169,  529
6235, 1534,  320, 1325,  322
6236,  319, 1295,  316, 1296
6237, 1173, 1258,  719, 1365
6238, 1452,   31,  334,   24
6239, 1470, 1347,  873, 1345
6240, 1178, 1184, 1179, 1417
6241, 1289, 1176, 1404,  536
6242, 1214,  761,   34,  749
6243, 1234, 1438, 1457, 1436
6244,  175, 1572,  519,  517
6245, 1537, 1248,   35,  326
6246, 1214,  749,  794,  761
6247, 1232, 1252, 1524, 1425
6248, 1487, 1363, 1513,  850
6249, 1258,  711,  720,  710
6250, 1214, 1248,   34,  761
6251, 1207, 1407, 1530, 1379
6252, 1578,  808,  822,  823
6253, 1214,  729,  749,   33
6254, 1383, 1351, 1290, 1246
6255, 1179, 1368, 1365,  717
6256, 1248, 1214,  517, 1572
6257,  527, 1335, 1334, 1429
6258,  719, 1174, 1402,  720
6259, 1430, 1465, 1247, 1464
6260, 1179,  717, 1365,  718
6261, 1179, 1177,  718,  719
6262, 1431,  528,  525,  526
6263, 1485, 1442, 1509,  315
6264, 1462, 1571, 1461, 1442
6265, 1494,  619,  638,  602
6266, 1480,  674,  650,  649
6267,  672, 1373,  673,  690
6268, 1376,  310,  308,  311
6269,  757, 1534,   39,  760
6270,  727, 1274,  167,  738
6271,  533, 1274,  535, 1332
6272, 1546,  730,  735,  174
6273, 1264, 1470, 1347, 1527
6274,  738,  766,  727, 1274
6275, 1546, 1247,  519, 1572
6276, 1214,  176,  734,  729
6277, 1274,  739, 1333,  727
6278, 1581,  619,  602,  703
6279, 1274,  166,  727,  167
6280, 1322, 1519,  837,  864
6281, 1322,  846,  837,  838
6282, 1433, 1516,  771,  744
6283, 1579, 1273,  170, 1522
6284, 1356, 1543, 1357, 1183
6285, 1209, 1408, 1511, 1410
6286, 1152, 1230, 1514, 1346
6287, 1461,  649,  648,  675
6288, 1372, 1475, 1386, 1474
6289,  307, 1227, 1339,  304
6290, 1465,  320, 1325, 1296
6291,  882,  880, 1468,  211
6292, 1347, 1529,  873,  858
6293, 1529, 1201,  877,  870
6294,  805, 1519, 1512,  780
6295, 1427,   42, 1428, 1324
6296, 1485, 1509,  317,  315
6297, 1434, 1376, 1486,  310
6298, 1256, 1498, 1324, 1319
6299, 1471,  803,  781,  802
6300, 1333,  779,  727,  739
6301, 1498, 1450, 1559, 1449
6302,  808, 1520, 1518,  767
6303, 1458,  839,  860,  865
6304, 1518,  731,  171,  732
6305, 1434,  308, 1376,  310
6306, 1463,  313, 1571, 1442
6307, 1499,  633,  603,  637
6308, 1472, 1461,  649, 1510
6309, 1579,  733,  732,  170
6310, 1579,  768,  732,  733
6311, 1302, 1457, 1301, 1157
6312, 1393,  618, 1532, 1552
6313, 1460,  867, 1320, 1405
6314, 1570, 1422,  615, 1577
6315, 1287, 1469, 1285,  589
6316, 1459, 1331,  769,  802
6317, 1502, 1564,  783, 1508
6318, 1422,  615, 1577,  655
6319, 1525,  814,  724,  722
6320, 1421, 1412,  646,  672
6321, 1440,  590,  627,  656
6322,  590, 1441,  184,  183
6323, 1529, 1328, 1201,  870
6324, 1432, 1313,  699,  695
6325, 1564,    5,   47,  852
6326, 1209, 1377, 1382, 1484
6327,  307, 1423,   68, 1576
6328, 1482, 1313,  695,  660
6329,   71, 1571,  313,  315
6330, 1234, 1284, 1233, 1237
6331, 1579,  781,  733,  737
6332, 1468,  210,  882,  211
6333, 1146, 1176, 1277,  537
6334, 1534,  322,   38,  320
6335, 1369, 1529, 1506, 1505
6336, 1346, 1514, 1506,  841
6337,  621, 1510,  578, 1574
6338, 1537,  817,  755,  761
6339, 1331,  738,  737,  168
6340, 1273, 1331, 1274, 1332
6341,  309, 1227,  307,  306
6342, 1459,  766,  801,  769
6343, 1400, 1353, 1403, 1525
6344, 1331, 1459, 1333, 1332
6345, 1335, 1522,  527,  529
6346, 1337, 1273, 1335, 1332
6347, 1318, 1322, 1321, 1405
6348, 1156, 1159, 1158, 1164
6349, 1326,  790,  820,  819
6350, 1331,  738,  766,  769
6351,  533, 1335,  531, 1273
6352,  766, 1333, 1459,  810
6353, 1467,  807,  804,  774
6354, 1229, 1274, 1230,  535
6355, 1420,  694,  697,  692
6356, 1514, 1346, 1333,  812
6357, 1483,  692,  672,  676
6358, 1361,  754,   45,  753
6359, 1513, 1525,  814, 1401
6360, 1401, 1174, 1418, 1353
6361, 1508,  815,  763,  816
6362,  802, 1331,  769,  781
6363, 1412,  672, 1373,  673
6364, 1469,  881,  179,  879
6365, 1229,  739,  166,  165
6366, 1331,  769,  737,  738
6367, 1400, 1525,  208,  723
6368, 1480,  702,  651,  650
6369,  835, 1514, 1505, 1355
6370, 1206, 1192, 1385, 1377
6371, 1529,  857, 1328,  870
6372, 1391, 1289, 1281, 1338
6373, 1401, 1418, 1562,  762
6374, 1513,  829, 1401,  814
6375, 1401, 1418,  762,  829
6376, 1486, 1295,  314,  315
6377, 1396,  686,  696,  683
6378, 1525, 1401, 1403,  207
6379, 1401, 1403,  207,  206
6380, 1444,  885,  886,  888
6381, 1428,  791,  752,  788
6382, 1371,  697,  686,  688
6383, 1482,  660,  681,  676
6384, 1309,  825,  789,  792
6385, 1503, 1402,  197,  748
6386, 1403, 1503,  206, 1401
6387,  748,  747,  762, 1401
6388, 1564,  880,   89,  212
6389, 1451,  827,  795,  797
6390,  516, 1236,  514, 1235
6391, 1468, 1502, 1478, 1508
6392, 1235, 1493,  518, 1236
6393,  511, 1288,   24,  334
6394, 1502,   46,   45,  754
6395,  210,  211, 1468,  726
6396,  512, 1199,  139,  335
6397, 1494, 1495, 1581,  602
6398, 1502,  754,  783,   46
6399, 1487,  875,  855,  869
6400,  884, 1298,  881,  883
6401, 1392, 1393, 1553, 1497
6402, 1470,  868,  849,  867
6403, 1305,  828,  851,  863
6404, 1218, 1369, 1181, 1196
6405,  328,  517,  515, 1540
6406, 1513,  827,  850,  844
6407, 1494, 1551,  581,  619
6408, 1576,  307,  305,   67
6409, 1392, 1550, 1551, 1504
6410, 1355, 1317, 1505,  835
6411, 1501,   65,  574,   66
6412,   47, 1502,   46,  304
6413, 1469,  881,  180,  179
6414, 1468,  884,  882,  210
6415, 1501, 1577,  584,  574
6416,  783, 1508,  816,  754
6417,   67, 1501,   66,  305
6418, 1312, 1501, 1469,  574
6419, 1239, 1419, 1426, 1313
6420, 1204, 1363, 1418, 1513
6421, 1525,  722,  795,  814
6422,  874,  878, 1210,  877
6423, 1472,  675,  691,  685
6424, 1339, 1468,  882,  880
6425, 1503, 1401, 1403, 1402
6426, 1174, 1401, 1402, 1403
6427, 1210,  877, 1201,  876
6428, 1174, 1258,  892,  721
6429, 1400, 1403,  888,  208
6430, 1178, 1177, 1174, 1418
6431, 1400,  886,  209,  208
6432, 1513, 1401,  829, 1418
6433, 1580,  652,  637,  638
6434, 1403,  207,  888,  208
6435,    8,   65,  179,  879
6436, 1563,  726,  815,  796
6437, 1367,  708, 1378, 1457
6438, 1564,   89,  302,    5
6439, 1403, 1401, 1353, 1174
6440, 1516, 1415, 1342,  777
6441, 1207, 1366,  546, 1380
6442, 1546, 1521, 1547, 1520
6443, 1174, 1177, 1402, 1418
6444, 1216, 1289, 1404, 1334
6445, 1547,  773,  823,  784
6446, 1546,  736,  173,  172
6447, 1457,  709, 1365,  708
6448, 1427,  787, 1319,  788
6449,  709,  710, 1457, 1365
6450,  719,  199, 1402, 1177
6451, 1486,  310, 1293, 1434
6452, 1395, 1531, 1394, 1453
6453, 1373,  692, 1483, 1420
6454, 1537,  755,  750,   36
6455, 1430, 1519, 1578, 1520
6456, 1381, 1556,  760, 1534
6457, 1478,  789,  816,  754
6458,  831, 1466,  864, 1519
6459, 1247, 1490,  523,  521
6460, 1581, 1493, 1538, 1495
6461, 1327, 1522, 1429, 1335
6462, 1393, 1553, 1497, 1531
6463, 1548,  728,  162,  161
6464,  731, 1520, 1546,  736
6465, 1546,  736,  773,  730
6466, 1447,  713,  204,  205
6467, 1521,  523, 1429,  525
6468,  525,  527, 1522,  171
6469, 1247, 1547, 1546, 1521
6470, 1518,  768,  780,  732
6471, 1512,  803,  768,  781
6472, 1542,  205,  159,  713
6473, 1515,  765,  161,  160
6474, 1438, 1212, 1436,  595
6475, 1498,  824,  791,  788
6476, 1526, 1449,  826,  845
6477, 1582,  610,  573,  624
6478, 1453, 1531, 1497,  321
6479, 1507,  571,  154,  570
6480, 1247, 1572, 1547, 1544
6481, 1273, 1274,  533, 1332
6482, 1579, 1512, 1273, 1522
6483, 1329, 1422, 1482, 1421
6484,  889, 1254,  891, 1302
6485, 1414,  547, 1413,  713
6486,  737, 1273, 1579, 1331
6487, 1208, 1206, 1377,  542
6488, 1373,  672,  692,  690
6489, 1279, 1353,  888,  886
6490,  889, 1238,  887, 1284
6491,  696, 1371, 1396, 1397
6492, 1481,  694, 1397,  696
6493, 1360,  806,  840,  807
6494, 1427,  787,  751,  758
6495, 1258,  721,  711,  712
6496, 1428,  788,  752,  751
6497,  885, 1300,  887,  888
6498, 1302, 1157, 1158, 1234
6499, 1249, 1398, 1364, 1232
6500, 1423,   69,  585, 1463
6501, 1178, 1177, 1316, 1417
6502, 1400,  723,  208,  209
6503, 1281, 1282, 1395, 1338
6504, 1288,  334,  511,  513
6505, 1245, 1246, 1189, 1398
6506,  306, 1434,  308, 1376
6507, 1507, 1208,  542,  544
6508, 1525, 1401,  207,  724
6509, 1535,  756,   38,   37
6510, 1503,  206, 1401,  748
6511, 1481, 1371,  696, 1397
6512,  688,  697, 1370, 1371
6513, 1373, 1481,  697, 1420
6514, 1371, 1541,  668,  686
6515, 1392, 1494, 1497, 1504
6516, 1245, 1251, 1399, 1252
6517, 1511,  658,  594,  628
6518,  662, 1474, 1475, 1473
6519, 1413,  704,  714,  713
6520, 1467,  770,  740,  774
6521, 1545,  812,  779,  770
6522,  163, 1548,  543,  541
6523, 1548, 1359,  545,  543
6524, 1399, 1396, 1397,  696
6525,  765, 1515,  161,  728
6526, 1148, 1229,  539,  541
6527, 1481, 1364, 1398, 1528
6528, 1545,  740,  770,  739
6529,  308,   45, 1361,  306
6530, 1358,  163,  742,  741
6531, 1405,  865,  867,  847
6532, 1528, 1481,  694, 1397
6533, 1467,  740,  741,  774
6534, 1356,  840, 1543,  862
6535, 1547,  782, 1544, 1572
6536,  782, 1546, 1572, 1547
6537, 1247, 1544, 1464, 1248
6538, 1515,  800,  728,  765
6539, 1430, 1519, 1518, 1522
6540, 1547,  784, 1544,  782
6541, 1308,  866,  878,  845
6542,  776, 1568, 1360,  833
6543, 1568,  776,  728,  800
6544,  716, 1435,  715,  202
6545, 1446, 1184,  716,  715
6546, 1430, 1578, 1523, 1547
6547, 1545,  770,  779,  739
6548, 1149, 1272, 1277, 1142
6549, 1415,  772, 1562,  809
6550, 1562,  778, 1418,  809
6551,  159,  158,  547,  713
6552, 1177, 1562, 1402, 1418
6553, 1177,  199, 1402, 1562
6554, 1371, 1398, 1245, 1397
6555, 1316,  718,  200,  717
6556,   16,  159,  160,  205
6557, 1381,  318,   39,   40
6558, 1279, 1174,  888, 1353
6559, 1516,  799,  744,  777
6560, 1481,  697, 1420,  694
6561, 1463, 1462, 1571,  576
6562, 1447, 1435,  715, 1446
6563, 1416,  745,  744,  201
6564, 1577,  655, 1312, 1422
6565, 1388,  635,  606,  604
6566, 1543,  833,  843,  806
6567,  706, 1367,  707, 1378
6568,  310, 1361,  308,   44
6569, 1447,  205, 1542,  713
6570, 1516,  771,  744,  799
6571, 1515,  764,  800,  743
6572, 1187, 1243, 1157, 1367
6573, 1433,  744,  771,  202
6574, 1562,  809,  772,  778
6575,  862, 1342, 1317,  856
6576, 1180, 1184, 1183, 1446
6577, 1562,  747,  762,  778
6578, 1384, 1382, 1554, 1541
6579, 1342,  856,  811, 1415
6580,  200, 1316, 1416,  746
6581, 1503,  721,   18,  197
6582, 1400, 1451,  723,  797
6583, 1418,  762,  829,  778
6584,  206, 1403,  207,  890
6585, 1562,  199, 1402,  747
6586,  197,  721, 1402, 1503
6587, 1525,  722,  723,  795
6588, 1562, 1402, 1401,  747
6589, 1177,  718,  199, 1316
6590, 1513, 1353, 1525, 1401
6591, 1562,  778,  772,  746
6592, 1177,  719, 1174, 1402
6593, 1402,  747,  199,  198
6594, 1363, 1415,  836, 1343
6595, 1498, 1449, 1559,  791
6596, 1416,  745,  777,  744
6597, 1415, 1416, 1562,  772
6598, 1416,  745,  772,  777
6599, 1503, 1403,  721, 1402
6600, 1480,  674,  702,  650
6601, 1402,  748,  747,  198
6602, 1402,  197,  748,  198
6603, 1562,  747,  746,  199
6604, 1562, 1418,  778,  762
6605, 1525,  208,  722,  207
6606, 1463,   70,  311,   69
6607, 1571, 1509,  315,   71
6608, 1362, 1478, 1309,  830
6609, 1553,   73,  317,   72
6610, 1509,   72,  315,   71
6611, 1400,  723,  209,  725
6612,  325, 1497,  323, 1496
6613, 1431, 1429,  523,  525
6614, 1257, 1186, 1219, 1220
6615, 1487, 1343,  855,  871
6616, 1328, 1317,  859, 1505
6617, 1158, 1165, 1232, 1157
6618, 1234, 1438, 1424, 1439
6619, 1506, 1152, 1151, 1514
6620, 1347, 1506,  858,  861
6621, 1401,  747,  762, 1562
6622, 1339,  881,  879,  882
6623,  777, 1415, 1342,  811
6624,  212, 1564, 1508,  852
6625, 1445,  183,  588,  182
6626, 1392,  323,   75,   76
6627, 1344,  856,  859, 1317
6628, 1551,  581,  619,  703
6629, 1415,  811,  777,  772
6630, 1178, 1177, 1418, 1562
6631, 1562,  747,  778,  746
6632, 1316,  746,  200,  199
6633, 1487, 1204, 1513, 1363
6634, 1487, 1363,  850,  855
6635, 1400,  797,  723,  725
6636,   47, 1564, 1502,  302
6637, 1353, 1174, 1418, 1204
6638, 1197, 1195, 1198, 1487
6639, 1560,  190,  708,  191
6640, 1267, 1421, 1423, 1422
6641,  680, 1252, 1437, 1425
6642, 1503,  748,  197,  206
6643, 1300,  887,  890,  889
6644,  747, 1402, 1401,  748
6645, 1564,    5,  852,  212
6646, 1400, 1525, 1451, 1353
6647,  212, 1468,  211, 1508
6648, 1253,  889, 1254,  891
6649, 1212, 1454, 1436,  598
6650, 1361,  759,  792,  753
6651, 1234, 1250, 1437, 1436
6652,  189, 1560,  190,  709
6653, 1234, 1440, 1439, 1424
6654, 1477, 1441, 1284, 1440
6655, 1438, 1424, 1439,  654
6656, 1333,  779,  766,  727
6657, 1434, 1280, 1486, 1376
6658, 1361,  754,  753,  789
6659, 1481,  696, 1371,  697
6660, 1413,  713,  158,  704
6661, 1210, 1488,  874,  876
6662, 1339, 1298, 1375,  881
6663, 1570, 1421,  653, 1422
6664, 1375,  303, 1501,  305
6665, 1280,  309, 1423,  311
6666, 1190, 1244, 1382, 1246
6667, 1546,  782,  730,  773
6668,  515,  328,  330, 1248
6669,  314,   41, 1427,   42
6670, 1319,  819,  818,  787
6671, 1452,  332,   32,   33
6672, 1537, 1464, 1544, 1248
6673, 1537, 1544, 1547,  784
6674, 1362, 1478,  830,  815
6675, 1546,  782,  735,  730
6676, 1464, 1547, 1247, 1430
6677, 1248,  761,   35,   34
6678, 1192, 1176,  538,  540
6679,  515, 1248,  330,  332
6680, 1518,  732,  780,  731
6681, 1214,   34,   33,  749
6682, 1537,  324, 1464,  326
6683, 1452,  332,  334,   32
6684, 1296,  321, 1465,  320
6685, 1381, 1292, 1325,  318
6686,  162,  543,  163, 1548
6687, 1510, 1553, 1531, 1509
6688,  515, 1248,  513, 1214
6689, 1522,  525, 1429,  527
6690, 1491, 1569, 1499, 1565
6691,  876,  871, 1201, 1488
6692,  309,  307, 1423,   68
6693, 1306, 1476, 1307,  878
6694, 1572,  175,  174,  735
6695, 1520,  773,  767,  823
6696, 1247,  328, 1248,  326
6697,  783, 1502,   46,   47
6698, 1520,  773,  736,  767
6699, 1339,  307, 1375, 1227
6700, 1559,  791, 1449,  792
6701, 1198, 1210, 1315, 1201
6702, 1248,  328,  330,   34
6703, 1328,  872, 1201,  870
6704, 1562, 1316, 1416, 1415
6705, 1210,  878, 1307, 1476
6706, 1475,  662,  685,  687
6707, 1550,  325,   76,   77
6708, 1494, 1580,  638, 1552
6709, 1490,  520, 1493,  522
6710,  884, 1226,  882, 1298
6711, 1535, 1523, 1464, 1325
6712, 1493,  327, 1235,  518
6713, 1581,  601,  602,  560
6714, 1492, 1532, 1552, 1497
6715, 1320,  867,  849,  847
6716, 1537,   36,   35,  755
6717,  327, 1493, 1496, 1540
6718, 1427,  788,  751,  787
6719, 1463,  313,  311,   70
6720, 1536,  757,  756,  786
6721, 1293, 1486, 1295,  314
6722, 1536, 1578, 1325, 1466
6723, 1537,  755,  784,  750
6724, 1449, 1448, 1361, 1309
6725, 1534,  757,   39,   38
6726, 1540,  520,  517,  518
6727, 1179, 1365,  719,  718
6728, 1578,  808,  831,  822
6729, 1317, 1505,  835,  859
6730, 1468, 1563, 1362, 1354
6731, 1427, 1319, 1557, 1292
6732,  757, 1534, 1536,  756
6733, 1536, 1326, 1466, 1325
6734, 1483,  681, 1426,  692
6735, 1471,  838,  802,  839
6736,  523, 1247, 1521, 1429
6737, 1214,  735,  794,  734
6738, 1519, 1512,  837,  805
6739, 1540,  326,  324,  327
6740, 1490, 1489,  522, 1493
6741, 1557, 1556, 1381, 1326
6742, 1544,  782,  794,  735
6743, 1547,  782,  773,  784
6744, 1534,  320,   38,   39
6745, 1373, 1370, 1374,  690
6746,  312,   42,  314, 1324
6747, 1295,  317,  314,  315
6748, 1272, 1192, 1185, 1206
6749, 1556,  760,  793,  790
6750, 1326,  790,  793,  820
6751, 1535,  785,  756,  750
6752, 1538, 1539,  145,  561
6753, 1559, 1361,  759,  792
6754, 1477,  182,  887,  183
6755, 1319,  847,  818,  819
6756, 1393, 1497, 1532, 1531
6757, 1578,  785,  823,  822
6758, 1498,  849,  824,  818
6759, 1467, 1360,  807,  775
6760, 1387,  669,  688,  668
6761,   37, 1537, 1535,  750
6762, 1364, 1420, 1426, 1528
6763, 1460, 1405,  865,  867
6764, 1370,  688,  691,  690
6765, 1551,  581,  703,  582
6766, 1458,  839, 1471, 1459
6767, 1493, 1538, 1495, 1489
6768, 1361, 1558,  310, 1450
6769,  315, 1571,  313, 1442
6770, 1333,  779,  810,  766
6771, 1333,  812,  810,  779
6772, 1394, 1255, 1491, 1533
6773, 1570,  615, 1422,  653
6774,  316,   41, 1427,  314
6775,  812, 1514,  804,  770
6776, 1340,  861, 1506, 1347
6777, 1274,  727,  166,  739
6778,  198,  197,  720, 1402
6779, 1491, 1539, 1495, 1569
6780,   38, 1464,   37,  322
6781, 1346,  841,  842,  810
6782, 1147, 1360, 1356, 1355
6783, 1358,  742,  775,  741
6784,  811,  777,  832, 1342
6785, 1557,  819,  787,  790
6786, 1536,  822,  821,  786
6787, 1516,  799,  777,  832
6788, 1358,  775,  742,  776
6789, 1229,  165,  740,  739
6790, 1466,  864,  821,  831
6791, 1467,  775,  807,  774
6792, 1486,  313,  312,  310
6793, 1460, 1321, 1320, 1443
6794,  799,  813, 1516,  771
6795, 1435,  771,  764,  203
6796, 1418,  809,  778,  829
6797, 1418,  850,  809,  829
6798, 1316,  717, 1417,  718
6799,  822, 1535, 1578,  785
6800, 1416,  772,  745,  746
6801,  818,  847, 1319,  849
6802, 1536,  786,  821,  793
6803, 1501,   65,   66,  303
6804, 1503,  748, 1401, 1402
6805, 1282, 1395, 1338, 1485
6806,  329, 1540,  518,  327
6807, 1361,  306, 1448,  308
6808,  674, 1472, 1473,  685
6809, 1260, 1449, 1308, 1309
6810, 1248,  328,   34,   35
6811, 1478, 1502,  754, 1508
6812, 1521,  519,  521, 1546
6813, 1430, 1465, 1296, 1429
6814, 1483, 1482,  676, 1421
6815, 1574, 1393,  579,  617
6816, 1486,  311,  313,  310
6817, 1558,  312,   43,  310
6818, 1427,   41,  758,  751
6819, 1449, 1361,  792, 1309
6820, 1551,  582, 1550,  581
6821, 1315,  877,  878,  866
6822, 1283, 1486,  311,  313
6823, 1312,  626, 1577,  574
6824, 1307,  878,  874,  863
*Nset, nset=Set-1, generate
    1,  1582,     1
*Elset, elset=Set-1, generate
    1,  6824,     1
** Section: Section-1
*Solid Section, elset=Set-1, material=Material-1
,
*End Part
**  
**
** ASSEMBLY
**
*Assembly, name=Assembly
**  
*Instance, name=Part-1-1, part=Part-1
*End Instance
**  
*Nset, nset=Set-3, instance=Part-1-1
  15,  16,  17,  18, 158, 159, 186, 187, 188, 189, 190, 191, 192, 193, 194, 195
 196, 197, 198, 199, 200, 201, 202, 203, 204, 205, 704, 705, 706, 707, 708, 709
 710, 711, 712, 713, 714, 715, 716, 717, 718, 719, 720, 721
*Elset, elset=Set-3, instance=Part-1-1
 2899, 3057, 4054, 4319, 4372, 4425, 4632, 4796, 4826, 4831, 4834, 4888, 4899, 4920, 4929, 5010
 5026, 5232, 5233, 5290, 5307, 5312, 5433, 5438, 5711, 5722, 5975, 6002, 6011, 6012, 6016, 6030
 6043, 6050, 6081, 6086, 6093, 6113, 6143, 6150, 6151, 6163, 6171, 6178, 6193, 6194, 6249, 6466
 6472, 6495, 6519, 6544, 6551, 6555, 6556, 6581, 6639, 6652, 6660, 6778
*Nset, nset=Set-4, instance=Part-1-1
   1,   4,   6,   7,  11,  12,  13,  14,  29,  30,  55,  56,  57,  58,  59,  60
  61,  62,  63,  64, 111, 112, 113, 114, 115, 116, 117, 118, 119, 128, 129, 130
 131, 132, 133, 134, 135, 136, 137, 138, 258, 259, 260, 261, 262, 263, 264, 265
 491, 492, 493, 494, 495, 496, 497, 498, 499, 500, 501, 502, 503, 504, 505, 506
 507, 508, 509, 510
*Elset, elset=Set-4, instance=Part-1-1
   77,  104,  187,  247,  251,  299,  331,  334,  336,  351,  353,  754,  768,  785,  806,  819
  820,  824,  826,  828,  831,  833,  835,  865,  874,  876,  892,  906,  918,  939, 1168, 1174
 1306, 1378, 1396, 1409, 1484, 1485, 1486, 1550, 1570, 1643, 1718, 1723, 1786, 1877, 1945, 1977
 2009, 2053, 2055, 2057, 2060, 2084, 2107, 2119, 2122, 2131, 2160, 2166, 2182, 2186, 2191, 2196
 2225, 2228, 2229, 2293, 2320, 2321, 2326, 2329, 2339, 2341, 2343, 2346, 2360, 2362, 2364, 2371
 2378, 2383, 2407, 2442, 2464, 2473, 2502, 2508, 2586, 2635, 2638, 2642, 2643, 2649, 2661, 2676
*Elset, elset=_Surf-2_S3, internal, instance=Part-1-1
 1165, 1296, 1300, 1329, 1406, 1412, 1629, 2017, 2019, 2152, 2236, 2240, 2483, 2485, 2487, 2491
 2499, 2509, 2512, 2567, 2568
*Elset, elset=_Surf-2_S4, internal, instance=Part-1-1
 1306, 2585, 2633, 2638
*Elset, elset=_Surf-2_S2, internal, instance=Part-1-1
 2261, 2470, 2475, 2478, 2579
*Surface, type=ELEMENT, name=Surf-2
_Surf-2_S3, S3
_Surf-2_S4, S4
_Surf-2_S2, S2
*End Assembly
** 
** MATERIALS
** 
*Material, name=Material-1
*Elastic
200000., 0.3
** ----------------------------------------------------------------
** 
** STEP: Step-1
** 
*Step, name=Step-1, nlgeom=NO
*Static
1., 1., 1e-05, 1.
** 
** BOUNDARY CONDITIONS
** 
** Name: BC-1 Type: Displacement/Rotation
*Boundary
Set-3, 2, 2
** Name: BC-2 Type: Displacement/Rotation
*Boundary
Set-4, 1, 1
** 
** LOADS
** 
** Name: Load-1   Type: Pressure
*Dsload
Surf-2, P, -1.
** 
** OUTPUT REQUESTS
** 
*Restart, write, frequency=0
** 
** FIELD OUTPUT: F-Output-1
** 
*Output, field, variable=PRESELECT
** 
** HISTORY OUTPUT: H-Output-1
** 
*Output, history, variable=PRESELECT
*End Step
